4875 5
961 353 801 991 953 773 191 2 585 304 284 569 224 9 209 1 548 6 657 809 615 907 443 727 361 850 665 615 78 705 169 520 166 389 735 721 938 800 377 529 885 809 941 203 815 187 865 79 443 168 159 859 630 953 593 594 623 951 569 430 442 41 141 701 969 968 721 569 433 611 857 475 595 820 440 373 76 995 289 722 885 391 604 517 470 736 152 137 333 157 197 555 452 233 909 921 369 329 707 175 617 521 471 384 843 169 808 1 452 917 990 625 796 231 843 221 38 537 926 485 475 177 191 581 937 769 93 294 930 757 438 184 17 522 489 369 983 61 631 70 769 657 97 771 611 991 145 733 732 81 177 441 739 785 381 313 313 173 578 24 9 445 909 737 77 33 856 667 601 321 920 25 777 887 201 539 189 654 917 53 231 401 686 953 821 561 373 115 597 784 497 313 988 617 315 419 296 76 237 121 533 297 431 185 249 921 212 461 673 240 379 86 511 986 449 213 493 285 647 41 877 123 725 97 185 561 987 813 821 305 327 199 368 72 652 661 77 659 133 209 104 669 525 145 885 639 106 553 588 59 506 574 89 443 921 373 641 517 952 217 115 153 893 9 17 963 873 825 713 166 721 865 807 67 205 47 947 233 122 665 367 137 373 417 201 325 938 617 825 517 565 493 701 471 21 709 539 780 444 385 281 739 743 209 657 955 721 769 589 571 458 771 661 505 859 169 877 57 497 369 439 829 726 571 716 457 481 73 331 674 211 945 916 648 321 774 361 6 797 114 125 9 887 335 765 118 143 210 817 961 585 995 312 889 411 911 508 373 217 246 781 969 211 93 337 935 435 749 373 965 155 481 410 596 435 215 677 321 441 232 145 301 41 124 957 905 761 225 38 925 965 13 865 478 81 453 654 719 905 755 379 894 633 479 461 221 663 881 925 275 839 779 123 31 353 965 943 667 521 497 901 563 931 937 299 958 369 197 239 440 46 417 97 373 275 501 805 12 362 719 185 563 97 547 547 981 171 148 553 512 517 937 144 845 663 213 194 705 48 329 119 522 991 925 455 885 17 634 47 695 797 788 985 113 813 727 929 28 180 662 995 643 188 585 889 401 369 281 357 49 697 969 225 642 441 199 445 731 975 905 223 609 747 462 121 285 319 701 777 785 65 764 169 25 169 481 17 147 481 441 513 781 691 234 641 415 745 486 773 410 861 937 801 120 270 321 370 329 949 831 537 523 585 429 126 685 260 933 540 297 25 951 145 209 316 373 868 617 905 351 984 857 268 169 249 116 955 779 37 59 705 477 208 228 654 921 962 329 45 841 767 885 611 395 133 60 655 194 685 473 568 401 957 675 965 860 729 205 70 408 421 13 118 520 97 148 261 313 60 323 97 995 925 425 108 421 833 884 31 430 441 859 169 949 153 901 443 65 398 349 25 489 39 140 40 810 599 857 917 5 145 545 995 829 766 801 233 799 953 416 195 480 745 703 929 193 561 648 49 589 68 497 517 880 773 197 824 345 779 879 679 311 661 413 828 775 135 377 593 811 205 625 270 144 333 11 273 281 740 397 585 701 336 281 681 292 527 283 401 763 673 597 291 947 422 596 141 483 45 472 747 421 231 826 409 220 522 708 691 37 762 656 177 208 219 887 243 333 757 961 839 749 457 13 621 997 516 986 922 529 831 267 937 171 241 482 427 423 825 578 213 627 481 258 146 242 775 455 409 924 405 35 449 275 514 121 374 490 9 940 672 399 793 961 541 753 321 273 41 499 519 194 297 197 353 809 297 441 301 375 620 41 401 28 229 681 917 637 81 249 903 492 376 579 888 767 300 281 341 437 238 801 156 965 793 713 169 937 825 677 681 708 885 485 481 431 675 162 169 367 41 5 325 749 427 692 157 106 905 617 281 161 185 681 857 496 949 995 105 522 618 594 25 25 929 233 741 805 825 261 873 214 241 393 523 39 595 685 486 340 345 337 439 821 938 865 580 401 841 417 407 841 553 691 943 301 617 149 781 426 619 772 340 952 544 937 31 442 801 115 257 961 776 657 143 497 228 40 405 9 965 497 282 869 670 748 513 481 387 52 31 109 785 73 413 837 871 205 536 245 753 569 303 649 932 471 699 769 57 625 423 477 246 691 485 441 257 939 226 139 353 652 613 610 133 466 352 629 322 42 211 628 243 11 857 150 940 213 425 76 21 278 598 466 77 137 853 380 836 473 945 856 69 57 104 684 217 907 489 421 696 665 361 507 875 83 617 277 229 876 614 169 617 414 919 665 687 377 698 522 377 81 591 721 761 683 17 234 773 38 606 865 761 701 881 313 190 851 705 649 831 163 256 169 705 197 75 441 969 715 641 537 282 445 467 965 308 875 894 305 953 234 4 187 801 631 933 675 35 493 658 924 881 353 928 541 461 950 210 316 510 871 980 788 333 469 913 885 685 69 717 275 265 814 121 534 698 38 841 932 169 50 505 801 941 719 253 436 570 781 97 817 571 167 289 862 113 319 121 235 256 940 265 585 441 935 751 265 824 801 159 13 517 809 211 105 137 843 385 638 285 469 386 1 801 613 889 388 491 11 981 945 711 327 561 361 877 782 361 47 92 914 373 790 45 583 769 597 421 911 782 371 401 854 787 893 929 537 209 929 950 730 269 177 601 507 445 729 128 729 773 361 47 433 135 955 990 311 469 201 518 977 161 129 255 487 261 105 511 441 723 417 629 529 825 181 777 391 929 119 727 809 466 642 541 95 817 805 855 335 469 200 911 45 359 227 697 878 797 633 849 908 64 694 305 889 342 163 133 465 225 955 590 265 161 939 13 499 135 234 465 630 56 51 961 705 913 673 129 766 378 87 819 581 241 673 889 953 33 598 130 541 1 72 265 553 367 465 409 877 525 26 519 300 552 641 118 750 219 627 657 487 65 325 185 161 425 88 49 209 93 956 23 533 857 315 97 419 45 937 327 517 149 937 854 121 523 616 521 248 636 270 757 453 841 841 325 545 273 365 724 803 161 818 433 437 897 873 497 568 41 611 69 229 342 184 513 591 668 597 171 890 257 453 137 668 715 981 67 722 121 669 399 863 479 869 297 233 790 221 227 483 535 149 775 585 261 968 83 923 615 549 69 32 897 241 312 522 707 695 579 525 73 423 333 209 73 645 105 532 340 785 113 713 189 663 925 305 9 740 931 66 830 657 332 453 457 220 252 216 157 822 63 945 374 566 439 465 313 169 761 852 339 292 450 701 549 613 425 115 917 30 681 921 810 101 649 57 481 17 905 641 573 957 345 377 636 237 284 281 283 649 693 465 239 327 109 785 325 213 207 991 9 317 283 317 312 945 461 593 335 737 817 681 861 481 143 185 675 3 753 417 826 403 853 640 273 967 689 531 751 295 214 173 761 123 917 156 797 433 223 347 929 519 761 193 923 465 225 588 221 378 855 811 557 57 874 230 237 995 766 330 331 508 121 637 537 855 998 295 640 87 530 13 329 325 844 461 25 673 137 741 175 913 185 187 949 456 192 394 71 43 222 664 747 524 185 989 41 961 832 137 174 694 959 71 362 884 921 31 869 985 409 641 417 327 495 961 307 163 119 743 591 680 765 393 409 997 492 25 103 865 856 897 311 493 135 465 602 917 665 258 351 109 451 915 523 905 225 539 271 120 81 877 949 493 919 519 129 911 970 562 152 363 681 627 447 53 357 502 713 379 401 903 235 442 313 753 209 577 459 974 184 83 370 649 530 991 283 481 205 20 651 868 8 805 897 318 710 232 560 25 828 789 367 553 917 659 9 581 393 859 614 334 341 183 97 636 97 897 627 912 223 958 131 901 887 297 115 611 753 813 889 619 625 857 877 668 811 811 565 62 965 51 273 399 448 477 673 866 586 577 745 291 323 810 209 262 681 847 941 124 889 327 512 140 517 849 380 186 449 12 367 649 186 963 705 483 526 749 263 589 873 73 513 820 333 593 481 553 761 401 179 321 537 649 446 969 489 681 112 593 263 258 757 182 489 185 545 101 717 246 908 921 825 715 101 231 929 302 558 892 825 565 995 876 809 769 833 441 505 335 833 781 961 585 349 885 371 744 507 421 317 414 551 493 331 25 934 257 649 983 237 957 305 949 246 621 280 943 813 793 730 771 507 873 303 841 55 582 413 584 475 687 355 671 510 733 972 413 27 197 48 649 750 375 129 888 62 799 676 242 233 545 113 128 383 273 1 386 703 593 819 121 679 113 735 320 95 742 969 837 125 489 881 973 266 854 767 843 405 403 359 22 663 889 213 969 399 663 25 331 779 665 905 771 550 521 663 685 666 703 701 149 187 889 49 406 497 554 85 690 825 970 711 297 987 727 843 807 779 453 467 985 824 713 661 876 365 97 668 545 491 711 481 551 345 830 237 154 313 83 101 643 685 487 803 195 435 349 16 90 241 207 865 251 260 93 981 978 238 41 723 793 77 713 265 692 288 354 241 987 961 11 928 545 247 657 367 42 363 81 357 657 23 848 869 839 321 940 353 73 610 581 527 559 25 25 673 977 650 631 347 333 241 843 289 768 657 743 895 713 789 126 575 841 641 351 972 50 625 617 814 821 979 403 52 913 709 703 877 781 585 46 74 592 657 437 268 459 681 991 57 17 561 44 125 249 285 754 54 697 784 841 197 861 852 471 643 72 815 409 229 251 201 773 149 961 591 434 637 40 770 237 851 179 770 337 299 670 313 419 369 486 205 849 429 753 733 950 625 377 271 596 412 369 393 636 817 593 71 913 221 268 606 615 219 771 107 265 162 560 197 130 857 637 555 779 599 39 155 514 788 129 653 932 303 397 649 985 910 919 859 169 343 193 13 241 689 801 997 779 365 491 457 37 723 741 757 377 869 680 919 671 293 935 141 849 377 329 843 159 153 75 401 285 222 861 167 569 997 671 201 401 874 609 881 507 689 7 11 25 265 325 654 805 85 767 793 825 287 85 15 150 37 911 891 641 185 771 112 673 878 945 119 471 685 543 47 943 257 577 473 225 878 861 185 41 973 781 400 753 486 435 392 137 525 969 553 299 37 709 569 209 724 12 807 25 372 313 618 968 277 96 705 624 236 639 861 412 453 713 733 945 743 672 863 717 713 27 21 625 945 989 131 375 877 657 672 151 575 744 875 939 601 198 416 155 537 942 171 581 922 780 841 912 121 393 315 865 568 371 45 885 61 782 717 879 981 52 465 305 589 145 205 209 659 878 671 300 107 697 849 867 713 393 201 699 73 808 213 758 75 155 633 529 946 430 474 856 656 929 31 937 517 275 675 763 221 513 203 934 670 834 355 778 938 771 961 801 237 453 533 857 966 981 764 561 653 495 198 269 76 506 821 241 434 169 437 801 922 34 723 752 905 662 121 592 701 577 849 309 19 613 437 633 142 417 121 895 889 392 941 561 266 775 805 970 834 630 969 509 17 801 721 700 177 769 697 101 909 248 631 865 331 483 752 527 217 124 74 107 51 24 294 23 528 569 987 91 624 882 592 597 569 605 902 352 747 377 487 892 161 972 817 345 106 165 297 193 988 41 285 96 743 177 6 302 930 431 605 141 718 75 736 214 821 577 693 429 966 871 173 617 921 228 465 513 785 442 316 985 169 872 131 513 772 427 242 808 853 25 284 756 761 64 395 977 89 199 755 951 765 285 358 774 481 858 415 45 585 630 962 976 955 87 545 593 262 817 41 896 777 593 881 878 81 405 339 145 631 775 841 699 109 521 316 977 901 89 106 779 633 73 259 269 174 933 341 667 354 356 593 309 210 249 233 557 161 740 630 809 122 31 675 787 57 806 474 241 451 560 407 593 829 101 285 140 843 62 593 57 225 388 549 946 344 427 819 127 121 881 892 127 223 693 302 160 765 465 601 497 809 934 121 432 689 345 45 194 40 41 441 821 368 31 441 1 503 798 213 69 737 764 563 286 747 11 257 317 681 360 959 259 633 821 561 337 835 428 202 929 953 399 362 319 886 213 897 759 353 256 637 813 534 341 98 8 67 1 90 827 931 761 954 515 15 418 344 439 997 968 76 641 749 205 296 261 586 49 103 408 117 497 299 689 669 237 285 487 881 101 556 527 352 975 761 911 957 471 189 811 941 665 957 995 369 375 885 634 657 573 249 639 563 685 177 593 969 149 358 690 643 729 804 773 931 361 863 3 193 379 604 905 85 89 697 960 597 808 24 157 623 514 561 489 796 894 155 401 863 322 469 151 595 663 449 445 491 606 887 902 66 793 949 233 461 105 401 395 809 821 928 860 540 591 435 213 744 464 681 815 436 981 339 401 548 714 352 555 557 402 535 657 29 729 871 939 319 991 338 363 393 813 66 734 473 953 469 869 625 566 860 483 865 988 242 405 443 843 231 56 509 303 453 789 989 192 65 417 826 974 737 123 821 339 126 533 321 597 494 818 833 232 569 113 313 201 725 301 540 687 169 629 374 616 75 818 167 479 429 9 131 535 737 725 949 669 108 328 769 940 780 506 737 713 53 289 615 323 149 784 136 353 317 109 725 793 37 537 811 761 861 329 925 686 675 73 488 453 849 413 305 289 345 100 447 979 394 693 361 466 622 410 857 800 779 737 267 15 200 177 502 659 939 566 231 610 997 727 916 508 406 74 215 533 225 481 691 592 521 530 421 257 985 793 705 221 396 915 152 286 193 677 381 330 658 597 755 286 781 578 499 809 912 697 15 412 455 633 948 830 590 471 959 191 497 189 651 697 276 997 699 889 910 687 563 905 561 299 989 649 503 967 851 942 425 153 881 253 789 709 864 826 977 609 614 793 357 791 732 822 310 231 253 903 891 257 357 488 847 381 34 737 634 437 801 838 703 421 817 281 851 33 881 534 769 369 881 490 290 49 89 195 241 108 377 658 458 695 556 189 814 728 147 397 81 106 477 562 721 643 33 949 385 351 465 173 741 270 345 201 723 381 540 391 656 551 456 363 156 83 488 257 88 157 553 707 245 401 115 107 296 632 877 699 281 219 54 953 707 393 394 980 276 555 831 121 137 96 383 326 29 505 913 336 999 346 713 555 946 622 232 318 493 844 953 945 884 784 517 993 181 291 741 809 899 38 633 691 625 57 469 865 403 297 69 324 863 40 158 667 405 697 689 89 713 386 376 498 587 105 733 980 578 689 569 337 201 208 185 807 992 900 961 809 640 609 577 727 849 393 257 774 423 128 189 907 873 160 169 350 257 61 145 839 305 645 467 609 797 175 59 721 25 404 155 785 897 905 467 417 490 649 217 753 893 545 897 413 961 427 998 768 115 83 441 297 896 994 420 793 897 277 177 691 921 145 406 876 901 122 309 761 763 462 233 209 485 81 109 793 398 913 897 797 517 905 321 813 897 365 560 419 512 556 129 321 329 537 275 465 918 729 333 105 739 889 223 317 537 69 474 266 385 671 139 441 646 827 891 621 953 601 229 177 573 126 819 97 291 155 725 247 217 223 455 272 95 416 893 656 129 96 439 421 497 862 795 398 692 15 99 321 561 619 89 385 41 1 677 671 423 395 459 737 167 33 283 456 391 225 753 303 385 994 445 165 161 858 647 965 757 345 433 577 731 105 183 961 93 213 85 161 779 521 593 776 571 945 821 737 67 685 953 374 838 264 173 342 839 755 81 101 131 929 369 307 958 666 241 301 697 489 909 509 147 17 305 371 473 283 409 401 827 952 27 765 360 579 81 211 781 347 607 449 301 633 123 245 358 119 704 275 831 887 828 417 587 69 561 605 489 617 801 89 217 213 87 951 124 365 25 98 281 969 862 388 914 677 871 778 865 593 142 550 369 17 17 171 852 648 645 760 927 225 335 609 713 784 732 887 533 997 705 549 681 753 443 405 462 64 901 409 616 229 262 46 807 233 245 540 330 884 371 221 622 591 139 299 226 177 895 149 113 967 634 270 585 809 953 553 114 718 553 995 885 31 785 737 273 877 307 187 101 638 65 449 719 111 582 249 577 290 633 632 935 321 686 535 41 667 526 337 517 681 353 729 389 29 805 99 565 654 499 429 351 316 633 224 53 377 217 245 357 423 61 399 902 463 92 849 100 550 148 521 427 493 881 849 357 643 499 889 25 117 33 943 372 485 219 631 103 385 757 133 365 9 219 925 217 788 145 531 947 411 681 697 513 761 313 687 9 991 377 503 31 971 65 296 67 449 525 863 657 352 875 389 685 40 773 501 253 525 413 417 383 697 417 569 858 921 313 284 337 807 747 75 189 183 836 713 223 555 63 63 284 749 105 61 186 759 701 77 811 455 852 49 668 329 552 191 236 245 579 211 360 769 782 255 141 567 57 785 796 801 85 281 498 801 316 284 292 872 593 129 629 731 301 195 525 233 979 948 943 249 894 690 117 362 191 17 679 599 19 900 58 348 740 489 685 131 847 261 455 555 781 435 609 170 85 671 687 164 565 533 511 239 798 541 122 346 523 819 345 681 957 912 841 860 220 137 845 194 894 600 697 427 223 685 200 978 985 680 37 521 21 561 547 565 398 975 649 468 893 872 801 729 657 440 712 129 742 737 788 67 10 363 863 837 861 73 383 377 243 961 172 189 661 841 728 369 679 50 699 448 787 311 283 603 186 220 137 750 181 59 673 888 173 593 913 663 289 985 81 968 702 570 327 874 531 293 678 15 945 135 801 297 145 550 489 477 273 656 756 529 219 751 965 833 121 65 660 193 625 231 69 445 889 723 53 526 609 981 685 785 405 844 335 906 813 834 777 912 249 988 855 32 498 214 573 293 708 631 873 290 351 991 273 641 496 810 177 592 617 545 49 457 537 94 536 335 623 553 751 391 919 210 925 818 605 511 713 681 645 469 483 81 827 289 805 387 776 861 434 179 861 583 753 547 521 815 505 417 801 82 563 547 21 215 277 239 121 697 17 389 527 881 59 435 338 902 850 561 397 429 672 85 233 631 973 676 423 103 745 469 19 173 813 791 718 929 919 345 673 129 5 625 525 153 569 377 835 241 459 958 747 571 563 297 681 369 158 127 678 215 61 201 668 793 875 850 723 417 364 825 681 295 301 729 9 891 729 38 805 569 815 441 219 302 185 163 989 816 693 187 465 133 477 109 34 79 613 21 377 81 582 667 341 115 305 921 799 49 955 661 565 533 374 11 425 681 474 353 249 915 79 582 231 497 637 63 534 163 655 74 557 673 617 200 581 850 557 705 338 37 407 985 307 226 757 436 55 414 630 258 375 725 657 81 819 47 17 513 552 649 233 337 312 9 332 827 165 760 279 141 444 571 909 491 657 620 417 262 865 852 414 761 136 429 217 183 263 181 514 143 409 27 233 509 233 225 777 464 945 757 873 146 30 821 132 583 869 553 526 246 479 61 597 923 285 281 841 393 57 802 494 407 679 1 933 329 67 488 370 118 859 259 665 743 188 952 21 785 417 415 561 870 556 185 541 305 584 767 29 754 609 609 949 523 453 862 847 281 474 705 861 151 217 807 680 909 233 167 97 105 918 377 426 9 821 397 163 1 305 183 869 609 121 689 419 585 206 602 17 3 429 51 176 281 329 917 717 687 722 361 453 357 371 463 193 367 629 93 269 489 564 521 163 617 847 817 457 56 707 289 171 483 457 659 366 671 953 105 79 669 183 623 31 777 945 14 777 73 743 457 877 273 507 431 162 407 17 5 775 758 481 867 960 169 846 435 529 638 682 281 462 387 578 773 208 27 948 892 809 101 697 425 105 419 681 682 791 169 59 55 347 327 941 498 445 730 435 155 474 12 315 745 449 613 523 188 329 934 895 641 50 745 435 513 328 125 741 241 982 355 473 48 913 207 482 41 779 449 144 201 810 714 619 196 65 383 445 477 853 561 499 585 325 654 573 217 800 271 57 921 823 337 769 609 859 793 146 827 191 629 31 215 750 879 101 761 385 312 725 631 189 217 486 641 932 34 445 321 944 27 761 37 177 286 817 185 412 488 111 489 991 555 785 533 110 546 636 84 777 751 833 753 298 144 922 119 574 433 585 993 939 286 881 391 233 953 69 49 509 137 812 513 59 331 345 581 259 215 843 482 155 720 190 434 138 516 469 860 668 569 778 290 133 882 740 229 945 113 245 757 749 522 169 227 277 673 341 163 162 321 162 497 305 261 593 273 474 113 505 185 728 365 228 645 493 625 129 325 487 945 949 700 693 823 420 245 781 241 804 502 603 404 421 339 637 947 178 96 785 61 705 145 645 399 139 485 525 845 757 233 113 807 863 625 229 911 478 765 279 627 875 369 540 14 375 633 797 363 954 249 955 335 343 657 285 983 370 133 57 601 877 533 583 441 281 968 681 137 677 593 608 839 143 153 725 913 419 16 577 945 785 698 975 17 865 825 511 810 991 299 876 841 463 289 733 613 89 441 141 215 430 434 164 991 135 655 897 193 501 806 221 553 39 576 161 257 705 986 704 325 189 372 72 849 875 351 533 348 265 625 579 561 779 153 224 721 149 969 187 113 917 727 390 439 674 67 288 997 15 575 426 469 705 265 345 9 581 877 702 193 388 709 662 353 281 345 813 370 998 432 253 480 505 7 568 961 545 703 941 618 421 573 539 131 333 649 333 526 265 859 615 914 787 3 25 827 131 920 713 633 64 227 311 705 721 533 349 117 684 944 797 306 949 271 920 705 401 846 197 809 117 688 917 505 425 807 481 314 309 154 770 729 385 865 41 427 660 685 277 633 959 841 991 30 369 871 101 253 527 318 668 71 487 396 668 195 33 81 423 15 73 414 445 145 746 393 713 847 861 207 981 443 171 885 409 402 964 200 435 453 520 51 613 201 459 748 994 87 177 949 181 125 64 929 1 817 526 825 379 859 706 301 594 373 551 526 1 192 880 425 295 801 841 337 881 394 394 952 679 34 45 196 929 737 979 163 192 911 369 597 231 916 276 885 546 963 278 555 177 782 899 725 791 837 144 905 969 427 309 497 311 83 202 750 869 548 244 196 811 