3759
419192 712189 453642 855489 783395 721570 246123 308985 52505 367683 501452 53628 369720 472593 7878 811311 295303 620337 247389 537449 955622 276395 943704 600102 506715 816329 158221 172993 724257 740808 304533 153425 177421 879938 930777 27617 815543 28963 647729 447505 556355 144885 700223 388490 351473 47385 685958 917616 157567 946229 707438 189446 116277 525317 478045 109192 742997 578005 346761 493099 559863 80977 256979 694020 481386 194168 555916 864121 397851 724407 500165 883932 412937 171326 349125 930755 902808 246346 387484 673642 663225 274488 2655 372564 18563 712649 469855 967510 959037 93569 296021 207362 540849 953245 154733 97 496905 72424 726419 152049 171915 131313 843747 301501 465197 287607 952580 443509 965634 63536 704677 592194 870151 659925 942585 745175 708433 528767 232753 830387 707693 628929 36588 468408 559710 413812 980738 310007 787465 616293 361947 456617 891833 484907 567893 690953 973790 796648 657345 355553 177667 787641 576589 203207 286769 525546 603665 398317 660329 822913 235877 598093 722391 311128 580945 410063 491861 832815 597217 50777 800977 525697 126701 347641 331606 997867 288517 609308 520603 711285 542713 332841 360418 395887 318641 263218 85069 473803 900257 284829 548553 246565 905721 620817 902165 505321 197828 444630 175876 851351 592003 726811 502604 544919 787625 409129 860348 873145 467041 422593 490497 356514 953991 262473 360537 773762 190276 911440 792177 170032 91475 344085 259211 332930 172589 852868 351351 185235 413973 315817 321240 860505 933425 531300 211452 857601 389514 695411 26693 465757 927441 718143 25792 150907 940929 109226 133953 906313 977264 278106 383155 31031 803338 283745 5367 304409 36153 816897 789579 607477 865801 628844 770089 313245 427924 783714 820593 531477 990810 709827 62842 568065 527908 454989 223378 546387 9979 525453 352457 218706 379193 622501 361814 477144 110267 715593 646369 330113 800684 35875 515519 617617 186700 594715 675931 340476 432321 278189 214866 58313 804009 278509 574609 837582 627037 371827 426705 117133 207700 245886 93972 633137 90195 748406 902089 499127 739892 623685 675145 874066 155433 9081 966521 220581 536743 546661 134557 673865 621265 696322 658965 360255 610506 223304 593572 742061 557209 32216 121653 123549 259587 311052 943489 76704 544809 60637 851271 933537 25559 207103 889971 187017 511088 272547 724997 515837 169201 195985 642237 720751 410299 880121 584209 956073 128625 275580 788475 971305 592897 44049 7673 8920 512362 113123 580093 747701 115139 935395 195730 728201 779211 40693 758071 707241 938936 385876 779761 243901 981749 785455 343679 192683 250211 551294 386638 906663 216290 740389 789768 382542 739297 243561 30845 331041 940519 740058 438873 624905 829225 45185 933825 214215 944557 65329 770936 373790 250471 500049 113969 197553 125119 791777 689281 418033 254545 103435 456801 286184 50269 106137 592449 24065 308804 513085 912404 22339 767402 53077 224183 948856 360560 409519 485777 875928 145655 56995 878379 695180 591764 822070 89153 81355 708128 598093 241709 591388 907797 599069 625744 422827 207589 980065 307293 582929 357713 835327 303337 826633 842142 475156 376556 389974 819237 75650 795071 949716 723961 639415 973745 686529 282619 143577 650081 518055 976299 989345 223617 617373 109459 14497 899055 769537 953759 363733 89 651521 863065 502435 805336 734013 836483 135365 346280 484331 911276 929643 904479 333241 328022 679957 57616 766409 516012 354527 158353 859 211529 668449 967017 285849 75209 499727 875841 592577 854173 944675 3098 925389 10572 147345 553980 933294 987792 1697 341717 733096 969353 715497 590161 595781 536977 61825 475783 50547 32577 406969 150865 902225 273481 982389 665355 744473 690437 642917 746593 910354 388560 193662 439112 993779 757059 796770 690261 620382 141979 618759 683897 593869 170073 49267 702591 957217 946709 236029 728405 719719 311903 739553 38151 423157 418497 90663 752863 146657 394395 453702 835074 339390 439141 591942 544174 617525 725760 374497 10778 700254 898604 785287 671005 10324 388657 173426 740301 218513 727504 373249 623149 809183 827051 409737 468971 984449 549753 831623 107122 264321 418547 201823 765729 494473 605679 911665 50093 246645 667521 871945 580053 38782 570200 736013 951977 607311 362678 128977 443391 655993 23749 283298 871249 427695 22301 787840 800712 924729 157127 419605 430349 705867 619333 957899 616319 558677 836155 971351 937653 534161 135464 73345 669905 482829 873738 587105 516669 860033 618629 722364 266845 840557 338991 280278 373109 576165 747563 505096 449354 712375 460053 235880 400105 915053 259233 544401 392751 285 980337 150946 313787 672629 196913 367120 132958 352673 906492 271281 370977 607815 738623 146923 902325 221699 167037 732922 766221 510445 260705 118341 827177 557495 391143 788257 90225 774477 811836 686772 165057 333417 172539 73118 773251 213777 475345 587865 766885 253322 652540 775253 514735 235919 904783 45201 680449 822954 738653 695119 263851 11641 763049 363249 132961 768657 468300 339985 371475 53864 311885 370185 334153 410101 525273 856689 999987 225016 410853 147396 821934 171032 339361 650687 280265 34717 16511 680345 499749 727262 796163 432449 223283 807379 596417 261889 137761 65798 841747 930715 512603 688253 917437 417811 132075 162499 681735 653463 754053 872491 677606 102657 322305 260315 123873 826943 156527 872953 55317 574368 775697 43477 332838 527567 809384 533432 195949 816627 201425 32499 911567 401257 254851 573895 375635 637838 47195 216070 692257 185605 230723 524769 849903 40577 287645 876825 392793 686009 76672 664601 209105 85941 532181 383601 635901 63311 264259 540651 781277 135517 91703 596893 528673 724457 611695 330987 45765 888265 975025 808849 693754 226882 558129 643307 838909 604393 311044 609950 581060 531265 926542 399803 661103 624109 79683 572409 474141 883913 855911 219461 80125 163887 476256 104769 623425 371449 228413 606143 739209 592709 623269 47661 792059 492737 262658 733344 403927 211585 337779 619017 549343 247991 993317 49135 167177 4069 655729 63992 451021 816953 412904 601185 194689 243191 922089 152044 325937 667681 808238 808807 914689 508953 936995 780153 452932 654388 929930 845274 121151 931649 401055 670334 371953 708685 139649 793554 26689 363201 868871 634381 117009 485580 21591 714017 560953 695662 387359 908359 614283 456037 599617 381142 69753 813969 433718 654718 885135 715329 796545 574690 425463 102792 414789 463425 420736 140439 756847 620343 673326 238701 665150 513048 108545 300230 633178 990521 41853 313387 233935 182797 412150 849849 879577 562252 177111 643375 661057 482484 773553 981659 651979 692065 870844 317009 819685 413575 531462 57021 215145 749001 472937 778181 274945 304878 837278 546454 289249 186466 959642 55737 159973 845757 56368 390593 760705 264837 82233 147029 16977 500091 170737 264609 973521 351285 16772 939223 149482 151557 368527 628188 273429 248321 998672 697345 53830 661945 36081 310183 312563 293225 328128 421461 353082 942997 27337 934453 464013 349321 499610 216525 817415 544085 570850 290799 862677 634451 574739 857881 884694 413965 69823 982417 497293 276895 339927 47841 783325 490601 392041 165281 808849 987943 540933 704037 289971 873377 144433 886433 834595 9523 53603 831965 962997 798156 133361 696095 336231 576512 394468 383210 49378 166759 227494 235919 14663 295595 152833 669233 768382 785217 541959 993783 744562 996297 226707 830952 749303 265225 226433 956355 591603 420195 810385 352029 743153 303311 516941 740353 818849 281118 428642 138051 215555 451631 395991 363464 652013 766845 255659 384249 704465 39361 585057 910874 700199 478996 273993 692192 106960 407691 114330 803417 636453 439819 912281 445335 913878 263013 92929 872025 967201 393057 331279 677777 362421 370679 185251 944337 965311 571825 222901 201609 724837 437832 256834 11487 613275 900813 556422 916114 755527 975224 896401 793235 471932 951095 540433 183825 724501 753531 868905 818907 502757 234577 689563 21340 84049 582017 486563 598223 392685 853414 918092 51870 930289 359287 485750 829837 358953 547713 951207 633909 615368 753091 842018 588225 913385 746149 858501 209297 359698 123963 879489 888478 590658 612540 345925 945793 511203 775684 209041 636461 6673 540489 594821 55309 28319 817561 42149 936865 402455 909182 421377 212929 866405 125861 814483 869025 258319 59355 701350 65783 628632 733697 461934 28437 976905 206358 982337 113915 542823 301039 227373 676453 825897 456326 363627 921093 183391 964033 795105 208825 77852 133077 694917 679714 300408 558925 707696 964673 682420 637695 440439 845435 115843 599255 908119 195818 396239 193661 439898 841961 308052 621128 950950 199013 148353 125302 882181 954115 790161 796417 688015 627123 973800 905193 890724 244941 638695 500187 943841 79827 655105 845349 434221 614832 240652 702051 952118 995421 603012 34417 717651 617300 363 62609 343055 956717 522789 682961 658129 114805 194644 913617 14545 115619 152339 43377 10953 309865 692179 561331 337815 975257 947156 792201 434780 606825 239297 255173 752553 5972 677964 512085 990760 603366 827585 460441 874397 367212 612538 94643 247481 348523 904553 991249 272397 175953 911766 538561 163395 107547 330079 497089 485927 768413 920193 547908 985505 234391 460000 15470 696841 825956 820401 615570 988377 374979 223757 598433 392545 725929 911957 718609 137601 212933 645973 247067 935198 188867 113885 376476 18121 695703 52761 304641 46692 150289 985360 583745 529023 387549 439569 303656 479337 742443 304084 388865 732665 704671 598095 974769 401268 686445 971138 457341 138165 426783 324367 995353 750253 769057 85277 105411 527525 498270 457998 736261 630781 986105 378087 102009 682425 966093 867457 474318 589921 892235 561925 569393 665931 567222 842008 880756 156441 314655 893036 442645 655631 326767 490348 583717 944880 726773 44089 845115 264263 85669 784537 920026 401673 672789 291753 767937 858164 735054 353025 746512 462159 656378 452581 687943 166541 303061 638386 936385 560009 566141 725294 892765 525191 4546 514642 128011 66397 294337 909555 102646 323945 390449 158294 262849 847938 436563 666214 634003 149997 422573 787781 897849 683721 217915 698535 577739 615086 344307 23089 605057 621757 777885 718854 304381 330129 970329 309435 27657 645921 170563 564560 208599 706105 139210 629361 487225 706764 769645 355279 509297 32265 835437 393489 945077 788565 965613 420069 576219 456665 575793 689014 349343 645120 916741 847340 831863 236873 158295 124298 439357 936833 448271 163897 335135 390381 879922 411651 587631 256109 507963 944218 505393 490182 873277 989465 507455 394333 606897 160587 310740 356511 503793 681217 80593 874379 978177 712781 979086 679665 772452 785411 379050 483065 250516 192825 572749 202259 127079 193602 123331 540664 737369 228101 106881 253693 887607 354397 909063 20085 995061 627448 747626 396345 936635 723401 209581 964081 688891 653119 873753 396639 398509 678622 129470 601249 544439 763613 45325 177801 175921 841481 617955 269245 20441 766461 859933 644881 847666 859361 868399 339441 686223 678457 552091 884640 685587 300314 204565 98080 161408 723391 330986 551865 512609 196437 249181 961801 839457 891326 601697 457151 854032 337748 414965 51517 999731 107980 491037 920033 232409 307337 408897 805809 929689 51761 415674 115781 539273 427637 131136 97351 563864 421145 770845 302593 629551 400525 478725 919889 566293 371155 140345 323616 646523 560433 696257 85461 678234 556100 339409 234561 213211 104361 716547 523489 877632 621201 111385 304661 296993 629317 204294 406803 109640 880440 413839 463525 111452 529274 596258 462381 967983 918901 73233 775739 665463 263211 530133 429188 204213 641533 706231 71393 994673 974023 38917 508769 302241 725837 698819 809925 596955 903347 810725 626751 399441 276082 277619 323607 389151 301569 42789 832610 97701 439106 611149 601095 483256 959220 537047 306595 165277 586060 198538 884372 657149 928943 978905 47368 713670 163703 857002 870177 674645 661721 340267 127938 467613 307448 921009 617713 620129 235023 658241 187957 390369 647321 451839 550319 363041 136229 515511 729137 942933 165941 442849 871748 553963 933345 884114 621413 896257 88873 795213 953605 270077 206421 713245 49441 630740 486099 713157 711325 255431 476141 96817 86113 206742 405627 271489 880388 620634 1613 147809 632776 145261 538799 470369 683247 217153 122497 118346 667971 229955 640937 109987 83305 188229 671527 314025 146689 817560 419489 455693 811550 209929 246017 658017 113945 779165 903496 542793 951991 807015 970182 727825 347635 2711 653167 903857 771881 551225 718661 203516 167386 811581 901078 974393 705123 936177 87745 993649 591765 379673 916337 387762 19006 199249 526233 861802 771969 924173 222913 561105 250925 687081 363782 411785 620704 710905 902313 114113 479511 797912 275677 751421 801601 278569 23873 856457 638820 322188 666409 820431 601121 317521 513435 632741 519665 816729 762123 689137 485183 219395 15638 487664 196189 427711 733565 374089 930827 730334 744987 879679 631635 794465 930323 850222 250025 642133 698945 165569 75973 919265 98201 408581 574260 236715 898367 686580 510669 90079 521926 980385 826779 725073 477425 697511 798199 845707 361019 671863 645589 802580 245981 461943 908315 476376 729265 839563 329093 659580 967641 962433 210895 872492 43873 245755 160105 235516 600010 716433 388209 779717 587995 357536 67545 622583 470648 273301 983121 36767 387138 456195 567249 404126 412479 527000 366632 738849 19613 953809 116078 259338 710465 953519 334488 953793 831027 708721 613419 103668 392828 84081 296543 625807 556228 753625 712019 692469 904692 541453 333340 774529 746649 229681 120702 746440 13737 352563 695233 80046 153981 249575 962785 964369 825889 79601 654328 58198 736193 64451 240450 102051 887069 929009 297972 414284 545277 582299 507817 277991 179662 215309 181351 626817 252324 20780 257497 665069 657020 140766 286351 806383 639645 88620 214101 965473 618640 626206 939818 161021 51473 83176 996809 294541 594057 555365 195373 375741 101851 678941 575550 604191 870462 735153 661937 180177 131873 325979 459021 538414 243731 206841 29713 428987 847729 244910 806689 659637 573914 753547 935299 361426 899473 29011 561507 435191 948811 357081 624365 998567 791637 855569 38504 148184 269941 467881 291880 90337 338060 895253 539041 184333 44913 372471 50993 559806 851613 706077 887869 488917 397833 446077 82737 714589 97527 404697 662114 621011 834981 712811 618353 467941 984581 176708 732691 99626 131713 112997 762773 281151 377915 481751 72705 376443 699346 173835 625729 929668 401513 126640 139443 277465 99065 188629 486721 733439 67096 793542 434417 807826 153998 1675 636217 159921 368211 726575 861780 233759 123285 118789 444057 54766 457421 127291 803576 23947 36209 341401 635444 437569 464449 672509 421943 65011 226081 814716 857024 802765 134549 523189 930649 745947 661001 915628 597060 986469 914519 383279 384393 114990 508360 423951 136134 237775 266177 314577 284343 768561 895129 191424 690969 228417 411671 387354 28682 989755 110839 29805 157553 669871 960410 506197 965159 551101 870743 184513 30906 542429 591060 103995 770711 136709 442938 373202 645205 141783 235997 513144 75925 881249 28569 554193 124481 853665 120925 167361 3131 671212 915102 181697 463783 881537 338186 589007 583081 983671 196167 535481 349091 2989 120521 928506 902473 655705 864290 63401 527017 905669 892923 457977 616003 836637 286265 500225 478875 479707 543425 863097 547181 219146 739438 720601 381773 743831 437538 910050 795709 627495 771788 215568 222473 969159 874685 509220 917685 14529 462465 838845 806106 763335 729822 851845 175562 826185 146929 713707 380737 77172 148345 21127 919875 784614 81401 117127 217121 849628 238289 150817 647830 779268 677537 507352 928027 982641 577724 334460 626301 74497 429574 619553 599469 871246 715317 454977 139845 817157 490241 787723 669137 625703 395347 818630 818800 846709 173389 361019 537129 432677 124725 377609 848957 810629 783451 309965 458889 430181 156977 978100 8879 852829 340825 420679 244693 894837 833625 692709 31107 263639 367041 394151 633315 180657 166559 136393 866537 647938 567549 89952 931415 213857 182083 236533 644187 887401 623656 280334 31298 917875 550272 418391 435591 624419 430948 236486 474269 61566 728137 825425 509103 215553 4013 293787 860521 466721 777965 486692 807489 539633 925265 475305 58403 469485 784093 942291 890974 523686 409825 305145 456177 441651 111729 240127 687823 320381 681003 958225 903383 438967 835011 13758 764438 385219 93755 129109 979785 753169 682145 277163 762689 965878 853925 536765 365793 952909 507960 69880 230732 447525 491126 587701 447789 975671 253715 515357 932479 143007 455141 436797 922329 376891 23233 133670 242549 262329 886679 672592 24488 940857 413962 627019 924347 230839 874755 197606 297727 719881 848619 448569 411576 304329 839452 582031 226696 346263 692644 194005 110568 298325 59623 750613 514789 522321 308481 845117 466079 249718 756127 526953 176405 999995 494101 32715 622271 91425 475649 244689 241105 132383 197737 238963 661094 144971 765806 610545 770697 5328 829527 462091 3873 745850 464229 117617 112057 126289 219756 78207 439420 765465 575307 829864 682209 810207 481153 337162 157767 113685 454231 896718 350873 586173 553261 589685 577175 649463 19111 320987 626161 102131 536982 791421 77379 334871 985319 50539 286411 164900 286305 712085 492706 661854 492779 3105 987312 135977 127687 704711 44111 565749 737427 662385 264375 653761 198361 331788 831595 684001 295393 674441 566221 116877 381587 286083 365100 512849 108024 611577 726900 40955 105073 921103 125893 536741 836833 696401 670513 211689 7734 977779 485219 555881 832065 844409 124101 947369 604097 197648 699681 196767 226355 714334 761466 82823 158219 859937 998090 233993 868301 802377 274129 161667 776422 454297 640005 849923 648617 675245 166227 665302 151877 911473 229580 168587 48272 867196 329414 775253 500449 887297 906193 319937 517680 533250 782933 361449 845145 303449 243956 788779 314897 816993 872679 516094 963329 464025 55921 899412 135023 818793 950838 407268 799028 594101 997889 785573 71835 824611 894073 26585 546737 812468 657300 881169 192489 867365 807390 95877 519738 518094 940777 271079 637453 969555 372549 421605 489453 604081 961210 135105 303829 192208 332154 1379 916228 791442 495461 2881 255841 617419 526453 289285 890635 187581 618913 970969 467441 715989 970051 758401 729519 375515 605894 163279 357860 365193 534941 712525 536452 124059 838321 456017 719729 176592 302364 879432 134089 410136 969449 235121 494057 440253 656774 252369 538177 31656 130669 503887 681432 273745 301505 599650 164257 499119 191553 645985 95319 212817 207857 370742 398143 386785 1733 860328 644883 733509 978908 366265 895673 64093 651969 507637 201490 985070 966021 652253 609506 130437 716302 479359 859299 602172 23885 945429 903585 502044 572953 596192 666075 385811 86786 584802 778945 886369 53758 487802 695057 582721 11194 312065 992610 758723 494547 296361 599587 177597 914057 915841 704043 195905 299914 946146 276369 432805 919294 788033 505911 284361 733041 819670 671102 217932 806879 524914 69585 976625 218214 80649 24673 317505 209873 49609 780481 989026 134911 330393 697449 860843 689125 457487 64076 703344 193945 424813 907226 610397 268479 348105 967325 356717 258342 881697 953249 227777 518884 536454 841101 846029 986829 887897 188866 615505 87319 560759 24336 732591 176719 928990 797133 27901 992929 946916 761489 581853 102301 107439 872777 467517 199705 243672 805275 912631 505877 810091 175281 881029 896481 677439 438657 192849 770333 459462 643096 532319 843721 928089 358182 872053 804411 469951 150541 855288 387731 783879 874353 751153 788689 465653 80793 454388 588433 127679 54409 933017 852948 230154 424632 578707 135973 693057 154536 508108 396800 987201 950101 284083 367304 44705 638969 804305 946991 107482 12369 968733 431701 337433 36214 398775 781061 407883 366021 506460 994486 830729 244261 61385 931985 619909 418357 607798 535778 111230 705589 818301 517885 720109 290292 49302 99817 57749 266273 696385 350465 133105 524291 99603 383265 397845 511973 300229 633407 700155 416001 899374 393637 207687 617442 352797 953701 117221 136637 249921 892409 560491 465517 129281 57797 410693 660269 659169 763378 143841 629419 321701 756576 600914 894657 501725 843863 489849 458350 527761 945148 239425 446222 7005 105885 421606 247587 997957 934641 146430 234423 472161 925025 943105 909107 587305 803634 662169 708291 310143 241784 541949 559869 64973 872043 947942 545215 586947 767549 48712 5156 124705 795324 225705 151761 412167 747415 984662 400685 474597 423305 981923 550441 712663 463873 373221 835889 726961 998762 370463 610455 700343 237611 262285 445845 325817 944981 102825 90054 989836 749409 425355 549181 744019 94863 49101 213566 663589 911051 534916 169973 881149 728515 949089 132035 814725 863854 331130 262297 672318 607209 197735 782148 271189 212929 734629 626779 438497 28073 469365 884267 610364 761808 836549 441277 794075 765961 170209 299713 447171 883055 819671 248493 465707 203665 367097 52744 831403 937409 164133 179787 549097 393823 861185 343317 480689 386375 203617 388669 295726 930490 225437 953183 280337 977345 847323 472201 175661 819277 325385 170433 473343 521859 918520 689604 368610 700417 400970 350961 469259 162025 239375 714648 674817 785741 937137 671945 428676 975760 472216 558601 782506 542337 989276 903189 223460 774421 808653 526322 18661 955265 490024 17921 525415 31069 692031 499708 669149 610308 138535 240810 514263 700813 475641 227296 741413 212636 494002 63713 873809 733287 592844 120440 684943 389498 629633 398122 394277 784505 96169 257240 202009 529450 958713 26865 156095 864861 732925 278030 660860 483073 167466 487720 521881 840417 787146 397581 421697 136681 725449 21913 507153 70547 586364 559589 711665 630473 215245 257409 313995 581249 794435 757653 233311 54825 147953 73165 107471 178018 531008 156461 185440 482074 228961 41325 657477 164485 211323 213170 767208 823663 152521 906337 827562 565459 392313 777201 17670 952261 494190 946885 722065 581297 259840 927189 661583 806811 332339 147965 150127 525145 609747 524009 792497 592513 555301 709904 42041 304617 202557 294565 893821 685694 111657 229138 288041 387724 504049 435877 55168 813825 835918 466468 579296 27689 15531 89843 343857 596010 205491 65863 788919 621147 980497 234697 432292 941559 191078 914745 874881 138033 611926 20853 429381 946257 94801 64643 732145 166662 921794 904745 986657 616116 545608 931701 421001 673073 513921 987713 914017 56212 941418 285008 53977 498526 143497 204180 12309 973296 518055 672428 422018 172737 837320 905903 482472 651089 426817 699565 916637 213113 607813 289707 776447 32045 380093 425383 912705 877077 637953 551571 47243 669032 392913 586113 610009 858741 203087 339773 717961 569212 106105 676736 289380 866125 613590 627629 478413 862472 398952 845467 45677 127057 396751 794641 329465 408354 328101 858805 443115 596597 498771 886274 121265 567003 278814 946224 439509 545332 957019 957611 659359 591737 155777 379141 463547 833937 305116 588581 594421 303810 427847 100381 143635 243644 923612 772951 717420 752257 830097 615819 605917 723905 325239 423275 289459 875236 628722 941554 655353 831316 775191 681747 122079 885021 717201 118701 932196 585529 579953 195201 229761 297273 634299 464471 524049 977772 587273 895958 399127 502924 450825 291486 738365 931187 932673 357130 837681 18751 792256 884645 913029 952212 457037 512617 355273 999661 634877 98302 287591 368161 552874 447315 202179 555410 278337 314874 165961 580123 738891 975381 608153 438829 296040 670021 72897 105661 855581 100317 849857 597270 998248 283143 802023 812609 330907 935747 543997 404507 800449 430305 261154 315704 826949 542436 716733 391553 503699 929544 169575 357843 29305 145310 541157 513824 438463 408521 484545 400065 416205 755301 789242 270375 675208 565578 216781 108365 732183 229600 533958 770072 767041 865935 221057 558193 4554 847945 314932 634866 365274 509345 594537 941264 819779 293063 833369 80125 569083 728977 993569 713048 780992 855163 606173 161471 929058 341313 776281 461861 936481 589569 986689 444793 326240 335143 862197 619657 940355 816889 582091 206443 801683 516882 242049 758625 511689 292297 397322 466887 664705 443113 881171 938513 567783 168813 163141 859797 737805 984187 322225 409017 321933 332522 969683 524601 713953 785106 944433 104094 741691 104585 291219 157249 168097 430014 972861 11607 930227 821203 658481 157324 582071 974168 238526 127181 518848 869997 358335 250879 697353 369917 80355 277126 264543 826416 887211 95141 720907 396018 533567 476131 926803 567265 606501 992270 229449 245950 734743 127383 591985 675801 277918 18717 953313 789049 475459 849217 330689 149958 740920 619776 376513 7453 105332 598979 459105 19881 798557 971327 250737 630157 782441 866321 518241 380256 186561 803821 715297 798135 581844 456180 119469 448822 138821 964249 192769 496617 339873 370257 213094 114437 122865 208602 138593 53777 338721 286327 136261 109057 990445 971117 261293 232441 842391 727110 958985 848313 380962 264054 185760 341560 776563 688993 486089 548593 349347 500545 672181 317319 512514 814979 697362 492211 565942 611571 135345 296563 342311 411681 808193 822111 602473 326353 89730 172143 859345 445706 105515 970193 786683 121985 722584 719675 959415 102189 667562 965249 498556 121593 626604 634127 11131 973046 130090 495186 672696 626712 262503 537609 548322 325645 638990 841153 981973 933978 8484 112673 515077 55841 666937 31873 403533 250571 370555 143917 160801 972499 77835 66825 120565 858049 158717 869057 155221 142842 409869 843727 167989 573081 442019 521457 459936 964787 887526 104801 745504 668653 546001 363249 909505 905713 467493 514523 752885 326798 494209 60701 861593 68203 61517 105581 126629 702737 750922 512365 969158 750593 432605 341449 207193 986529 136553 493405 897235 984885 