62749
31377 15607 19073 48079 81791 91615 5690 73455 23037 68453 40681 41175 79461 57633 91446 17063 70965 34639 41633 81680 49898 96535 64905 54332 68507 70127 16482 67542 8318 65897 30827 58401 83809 44445 65948 39957 96439 60965 79661 58607 26191 16160 22066 52545 4775 28215 67332 21609 25887 40329 46711 13914 4250 70273 29129 48220 65004 64965 21260 35501 53573 42743 31439 37989 19385 9183 39758 8655 49851 50585 40496 78709 37729 1473 9897 9295 25729 57075 18265 69865 71512 26515 34231 95521 11104 55961 28033 86085 91719 25233 3450 40907 25533 80976 54685 41929 35529 11977 37059 25054 30039 84990 7182 58685 35175 10330 24154 81675 89107 20487 46271 44298 30465 74985 42911 67512 85633 87167 91591 79423 449 77545 82890 87592 90553 88974 8909 9800 10431 34334 22378 69815 58887 79637 98825 40377 98398 80950 11616 18003 13942 24393 30626 81745 23264 54505 51986 59597 98176 76076 8332 66977 97713 7 45744 22425 95861 11871 41664 24493 95793 71489 68893 80641 54074 45817 53694 19165 39281 82793 48974 62853 49849 65968 50981 91605 53665 30915 67917 74171 96583 61683 23117 91818 18445 32269 46883 26597 86790 84993 81443 21112 16869 87841 61708 25647 77400 97583 99185 12847 19035 3041 75165 7113 53027 24134 92733 61241 95074 98365 99346 14943 9761 38913 10841 42159 98666 66039 75993 2720 18161 68933 39680 1489 26653 89153 94283 74231 80214 10497 4002 36077 25945 84255 83290 80123 44652 61713 27147 64749 51317 83607 84231 40977 45423 20771 76224 84741 79186 60753 42069 83890 12175 73720 17640 60937 75194 47530 42198 56058 40353 41291 77557 4249 41693 41106 25643 1219 4415 24763 7329 3940 13405 63025 61601 30472 29761 17097 25100 21125 54265 35261 66326 57221 47244 46309 55917 66961 73767 16499 46725 59113 3795 72243 49149 24839 48997 1162 83857 95977 51201 81745 77449 69121 41340 20377 69069 26363 68561 28088 57825 46571 32522 67329 49013 33941 29652 7829 68741 80833 98249 26897 37108 24760 36405 65645 80769 31488 47407 2337 39281 54001 82225 64257 49769 43613 62437 77656 80906 43778 78179 40101 67030 31919 64251 13317 17022 75681 27423 36775 15466 55623 79568 89640 16321 7893 43089 79899 67487 18921 4191 71377 42455 2405 58283 26139 82017 47156 79176 35457 67339 79437 88682 12321 23849 16847 93693 54243 32033 58273 50269 83609 17861 63283 13950 3307 65609 1179 30199 31108 657 63564 18961 30975 33769 55521 82049 41952 18514 37156 84789 31873 96157 66279 52825 45485 7208 94881 74599 59681 65905 98971 71198 2370 61709 62305 85905 99238 27015 79591 84105 24481 60393 22304 32709 69257 11223 86061 90053 40221 32981 59711 60285 65349 59241 90146 28999 6170 20583 62637 94270 74987 36637 87943 31411 9541 9835 35749 30093 25899 57929 96925 37035 87852 63375 23517 33361 70435 67800 18534 21596 10337 23246 47221 83529 27978 20869 10921 60097 2145 65324 46265 74856 64256 68201 99925 64393 41035 55456 95089 90959 74665 92721 13713 82721 59057 92313 43921 72222 37839 52830 99060 16385 78972 39153 91284 23184 15535 83212 83615 60889 1846 93607 24235 38241 14831 57237 24109 23377 449 98165 12193 38959 44513 97245 58025 51645 41741 7817 74594 10851 23926 74588 9529 65808 25501 97327 74175 23489 25181 4726 25151 22952 27251 4486 38519 53335 46779 87457 65967 58503 69571 23632 98749 25901 14913 43513 61281 53453 50137 353 7046 25354 35235 47659 31649 91366 53021 4362 78125 47409 79082 45345 48631 14917 32035 61941 82249 72619 59935 75629 67752 91425 36097 66650 67803 82895 85469 45033 92410 89026 95295 76735 58579 37047 177 43968 9705 92827 19447 15413 95411 1221 26633 9361 61432 7756 54397 26171 68743 70541 15122 89921 60415 75380 98875 70593 42349 83569 13991 67697 87801 35897 69318 51569 53989 69533 97501 69833 57569 95475 45451 55777 52751 6267 30964 21801 88993 9831 46625 32970 78081 5753 79053 18959 40273 11315 54321 71514 561 14389 51082 4929 79563 44577 30191 60637 93361 18865 37623 9130 35411 69809 7917 21240 89169 20941 83471 47684 89273 43569 21374 8355 25917 5395 88449 99397 4487 87145 19714 27983 49907 30859 39745 76635 15820 859 59564 2153 92989 57248 76896 98161 23275 1962 75087 93257 77074 90127 62949 83549 44746 85452 58241 6401 44850 71037 85947 80847 32205 9768 49449 73771 67175 79453 23401 13111 71361 22387 25185 54315 26563 76003 36301 6313 52849 19491 10630 28865 17655 97827 23032 63101 8185 92129 86249 62113 58173 92477 61311 11911 2913 64611 24625 64636 49224 30587 85601 31109 48761 61019 529 14640 28535 85161 54530 11521 67829 12641 748 41861 66779 41401 92220 43994 6897 28231 58969 4369 87962 76291 95761 6269 26789 36627 21557 99737 57395 53801 78967 53987 30913 52141 65155 27529 37723 94025 22030 92099 91005 23713 24168 38055 76524 29857 80673 66777 54297 51640 78394 74863 4689 99633 27999 57668 47741 31349 32585 38707 61110 6201 75323 54033 53889 90925 93928 21729 70353 80323 22878 78547 629 48440 46749 41311 51041 51409 72823 56337 28571 91231 76489 18481 98040 10088 43924 30343 88181 70265 10873 16043 74887 47255 84071 64983 69461 40993 15585 78649 32491 16627 32168 32364 26235 12741 83113 64497 33649 75746 49777 45177 38841 17893 64662 18169 90385 50793 60284 95069 43425 52421 80145 1097 86039 46161 10422 22521 39193 70080 59560 30109 46068 17532 1769 62793 11329 40401 95829 2706 69497 55006 71291 69597 22021 37743 71050 73601 32262 38561 40601 25687 81611 34691 27402 28125 75394 11565 86909 13633 90269 47169 57125 68915 4953 58944 70906 55407 23381 11790 32715 14749 28887 76916 39337 47378 43713 75823 6739 83949 65537 34465 86127 29601 121 56568 38657 7149 94945 49283 23697 25987 38124 44748 37037 1389 65637 52654 80138 63105 17694 17457 62425 3687 98750 46649 44175 57853 86525 55286 21697 70489 17567 97973 6479 91309 28381 51061 58625 44731 14401 29592 40037 52095 87616 73847 75746 14765 27233 54860 13236 67277 69686 67805 31665 57105 56969 69267 60705 84112 24431 26681 60609 68125 33661 64037 49741 5941 72550 72393 92647 38280 4491 2679 53427 98909 777 49457 97731 52637 51747 2891 41970 44399 33625 8350 31597 57284 15268 36215 85867 82022 23171 87255 37600 69747 10736 804 79816 70705 43037 4462 77539 83189 9765 57713 77925 78097 73053 72173 29509 83473 51471 21527 33225 78771 83981 93158 48262 29726 69693 30193 1979 36292 10361 21145 78107 58965 6363 65721 34390 63168 13793 42165 20993 57721 20017 29837 16877 34137 76167 66831 63303 50649 34904 3419 1625 14780 97867 56916 99281 91617 66273 77009 48160 40914 21059 31257 44158 63589 95625 87185 43763 37183 22273 43418 19709 95473 34861 34756 83977 29675 10918 66151 1445 78809 75955 29843 95845 49849 93925 26575 69439 99545 3185 66284 83843 39483 8965 72905 38084 64701 89816 21370 38421 90629 98069 56157 2573 46441 56065 94379 77825 28727 14755 85045 38153 66145 70105 2775 60637 42305 82537 91974 27373 28285 18778 91470 4909 16761 70653 23281 37145 39007 17889 24905 1345 69972 82669 5066 78113 87782 81257 25861 71182 90677 75171 9574 36545 73755 78649 4507 69233 54689 87467 44487 79257 47597 33593 59805 19962 40229 38412 99416 82617 19119 5952 26427 29411 40581 22301 10577 48765 86451 92556 61285 40637 24719 41277 92254 3105 18561 48361 73187 11708 36243 14921 46613 60127 6288 51001 7744 80182 73233 5177 97142 25729 76389 3473 36153 34625 52268 7611 40695 80123 29264 95179 83004 6432 4670 1946 84501 26961 4432 52997 27191 70593 97369 68781 87389 36380 89370 22121 91849 87519 11233 33957 47869 673 25733 91819 67233 35975 65797 71863 99713 40561 16629 98909 84157 71711 23580 84397 55636 54231 85775 66767 10387 33491 64965 85787 88231 10289 92805 13090 17837 79279 77235 38561 25047 50890 44189 82479 71293 95395 49005 6191 51534 44829 15412 50853 90689 3950 7533 19033 75477 73440 8925 50646 25334 62995 94188 49020 44337 76193 61469 26811 49050 52569 92933 57438 63100 24286 44833 1585 27780 86460 36369 38966 43196 81598 31935 75397 92925 38639 26865 94073 22875 26049 96865 38735 80605 68050 21823 37305 41948 20089 58871 60081 47490 92214 6833 33551 42695 20689 31657 36493 35967 82109 16545 70213 85467 87273 19281 65788 45729 1898 7329 81124 25225 53047 96825 98881 92733 13161 14784 75229 34538 44745 48605 11324 89913 84448 10915 55465 82929 7003 96641 43173 84014 50787 47377 33469 93677 96140 78705 347 23225 67821 33973 25760 49519 29971 6321 15969 28143 89041 98989 21421 83233 94327 64059 75969 72395 81319 24640 38841 16871 83794 29001 26851 1242 55025 40235 27095 73291 59699 95964 45065 14286 38073 73106 44205 27883 38258 9440 4685 77743 47369 97570 65717 65294 30843 95483 40423 62223 78827 62549 63338 94209 62915 23905 85172 37275 70841 15382 53140 49105 34315 55269 88425 24135 23033 20184 11712 73337 34939 24097 76277 60763 6267 75617 91825 78829 9079 48227 97777 9285 40870 81597 38445 8305 8202 25657 74724 94348 95223 90731 8489 74902 6029 27124 80565 28417 44983 41853 65993 65057 27657 83543 23289 57275 40425 54085 69699 77919 6891 57424 95193 36915 58017 95999 95500 59476 85613 17917 58553 58373 47089 90649 77393 86456 91449 79531 105 35397 81961 66499 60049 51265 23264 89547 44585 11625 50629 54257 79904 50141 1637 58778 35845 56109 31172 40503 95110 61633 11147 35373 60164 31369 89685 88013 74279 29937 68803 55617 44820 66741 90446 42049 58266 76417 18402 45354 19393 19189 45046 17577 11293 93013 30596 90825 89069 34265 34574 10517 53361 46633 58618 7009 82193 36178 77921 10689 12799 48305 71393 3567 73752 82489 41265 80244 52957 15251 49276 45634 63323 42713 69090 3521 60252 32301 34047 66945 55571 4213 45065 24097 40861 23235 13630 10177 74000 17007 85465 57201 43475 59012 86476 55649 35017 22427 12417 92628 89275 64770 10565 57683 52619 93417 19391 64193 1982 13206 3940 36209 86741 15908 33689 84299 81953 25515 30557 44293 23885 38863 87171 4886 83087 56233 13453 10016 95143 29747 38529 76745 2729 49537 80307 9932 48204 94963 90899 67417 46257 25281 42028 38311 11088 45468 70033 95999 75414 3318 75622 77278 84964 46841 43117 20957 14807 65825 23495 23848 82825 8449 94354 99266 37474 84250 27452 91028 2912 99598 63827 36391 58281 61359 72281 89385 89184 36190 36295 73807 59792 51964 83873 753 70133 4021 14873 46491 9216 9269 1269 82518 91253 54865 36461 18745 38661 59605 88675 31901 3141 38593 65971 66133 82587 62975 25037 81313 33102 85499 35325 61243 38613 5235 62313 49053 99431 89615 6027 49183 74357 18640 88105 55307 49186 8587 26929 38669 67998 64276 71229 26083 32636 1918 98709 65417 83626 51254 98277 75868 12995 47213 15007 49613 75540 97389 80585 26993 19521 82504 79748 56865 78733 951 49245 65997 65705 64408 48173 96423 8848 16512 48797 57374 42569 97471 48692 30042 61749 98607 78885 53032 71325 9391 59830 13749 54865 59366 68517 53589 21723 40961 51477 56725 5897 18652 40315 34897 40855 47437 73176 40849 92750 79201 70442 49708 34043 8857 27722 91045 32737 43717 15673 19265 78405 97051 79557 6471 29017 71150 33827 13137 44079 22241 70685 88513 18217 96092 58033 46558 79151 76425 9964 86929 91288 67276 8405 12107 62014 66138 14837 68927 60461 97174 51665 92996 59929 86883 22601 44115 14225 38111 43817 47065 63412 75932 77413 74272 87660 26736 61294 70069 92065 13033 32734 89363 95937 43717 49623 83693 10565 12888 84681 50138 96853 61521 94385 15521 26371 16730 19836 13342 64621 47913 51559 77149 26353 47465 75983 86761 19776 49043 41265 61417 40234 61761 58809 49595 81767 43213 18221 69220 38353 86377 43210 64573 21093 3529 58213 32693 66033 8889 43433 52133 54536 85283 73227 29553 85869 24691 98605 26473 41804 58881 15465 14401 45653 45107 46996 6709 52885 14042 92775 80769 8877 53179 21049 84567 53498 2137 52977 26241 7756 96175 84297 77983 46757 81408 47705 79637 62753 74990 68483 93532 91146 97973 71169 98186 72726 1095 40186 12549 23509 8782 30863 40667 19262 9706 73434 26859 93684 13134 433 60065 75504 24761 98004 46649 71811 71281 43665 8805 26031 8871 49585 6503 95457 6392 1089 82253 60477 5876 1045 633 58230 68237 30710 92994 65516 60370 36152 2183 72269 95201 21211 38304 48733 39879 57265 54230 28274 82264 89841 17427 12727 31081 30321 21467 98416 63257 45851 37553 88573 30497 80444 32080 13217 96849 82459 42958 16607 70907 70805 82948 53601 63818 61901 4309 2248 22379 60748 14737 19789 47010 29123 109 99513 69119 61633 5712 41921 23743 68145 35245 4961 3217 85459 51945 2513 3934 82457 46281 15505 63086 76649 10209 27643 67608 86057 14305 97564 20577 95765 71617 20289 1225 41313 54409 5057 365 54593 74009 61256 543 59485 48569 39043 92193 52652 52601 79155 68521 90009 19545 37642 57037 10517 89311 46837 74229 25169 83621 11824 41102 49847 32317 94561 80279 80094 30223 87069 58897 70749 91752 82625 22357 72581 83917 44129 61515 74835 75360 55391 71700 23041 40179 74477 24513 48462 6161 72789 25521 77669 73829 7501 13030 15229 97405 38305 80067 13361 31585 45443 7085 54411 12617 84301 33153 94001 92761 12644 98459 213 90665 94393 86999 1757 72799 3661 23713 72513 40381 92763 637 9120 38389 57336 53217 38373 72197 98963 26031 70641 69029 27398 90805 90833 50298 64105 860 31521 98364 4169 68225 72335 86821 7211 24361 39361 8211 53495 53277 35556 90867 76126 4481 95963 84533 57205 9699 63913 96111 19730 45273 20105 25187 17873 6884 76672 12827 50085 30604 7910 59849 77479 30091 82482 44270 36861 64324 5589 52584 17153 67230 76705 22583 21404 30008 48860 67390 16513 21049 97080 49227 16329 9563 34859 59969 43017 61075 78171 32600 23684 66761 83321 76348 6211 37201 23147 21188 23003 24929 49145 63633 24561 33193 78911 81031 21117 45574 10281 37521 88403 1449 35761 34049 29216 47311 82645 25457 66282 14593 59485 58105 31374 64833 50602 32798 8380 57046 88953 57008 56797 32585 20135 91331 7685 96850 29727 69846 9676 58359 61141 88117 79789 81629 68075 84373 8373 12117 1390 57514 77404 35153 26759 16393 22558 729 11377 65489 16164 45190 31012 15857 1985 36991 21713 5049 36369 81275 23617 44874 66641 27101 10284 53109 76771 70930 2721 94360 20405 59657 30237 77561 80867 31033 76223 13975 14821 67483 44285 58161 90073 36067 76937 11877 54793 54762 71179 62389 70802 11783 89696 68604 89654 29275 57825 53709 27041 7689 57717 97615 55797 19716 21493 51261 70561 99581 39429 17589 67847 24013 74459 85817 39903 95789 56546 70977 25029 41429 10453 1940 8689 26834 48921 72239 78257 23036 30378 9601 42198 52931 59009 64371 95974 90817 71606 25565 61697 39849 78397 44705 4941 81923 4509 6773 2916 91273 259 340 53497 4979 68743 88926 8783 67925 65942 3681 17258 55664 80079 20915 86701 24084 3301 4799 47761 96527 73517 34025 90839 56593 46563 3363 19676 66198 72765 8421 93313 38971 48707 825 8793 20148 8467 82625 54743 34435 59668 70272 58649 83281 66537 9397 17939 72919 44784 4989 27554 88845 78465 3793 44057 48681 45873 10769 13456 67157 24953 26473 38552 82198 84991 65932 13249 75501 39137 72014 38353 74398 83593 75161 24177 22881 62113 28021 41763 67767 11702 1185 41449 28049 37233 63025 91154 11143 55429 10377 14229 89281 45689 9153 85523 6609 30277 83945 96171 86494 4590 30205 42267 20555 96916 68683 57247 61723 34620 58668 86189 19381 72785 96385 47696 93501 94877 93011 75059 16967 33305 45754 18618 85505 2657 87583 57719 98363 43775 43020 55769 19069 94785 32551 29361 74393 28906 36827 11507 12057 14484 42345 14337 84540 77236 75715 72818 47277 22832 12603 35353 32739 39489 39999 32650 42790 85012 55829 71890 70225 4610 91009 977 47985 88597 56520 6037 28784 33951 91834 18212 83977 98092 29682 95753 83502 97907 9625 10070 28003 80873 69231 95565 93318 9603 21197 85941 97353 76793 52737 2941 85135 50393 86065 57581 22753 82007 75261 58431 16425 90259 34631 9908 35241 95851 77164 62993 59840 50287 87726 84441 7572 41614 19901 44176 27745 51928 4987 58753 75851 51271 58435 57514 74489 51637 93777 15928 19467 79921 30153 83904 82373 34425 25667 59213 44692 85496 52773 79472 79736 35697 68401 17908 69219 5277 35481 72799 44089 72105 79277 23469 67009 27265 14970 66232 17280 88902 31229 63585 31881 23360 99593 78969 25169 78305 79016 83946 92052 78009 67269 51441 46217 39878 34641 36401 49349 12653 65599 93325 34473 74369 24042 64961 70948 47221 78055 25513 82073 99571 75785 82445 72721 11937 87617 76482 89531 62913 73812 73237 7050 52751 94116 28037 31348 34431 11411 18085 33305 96857 89960 73200 72483 32300 3880 3468 83057 47761 83461 91861 19637 35274 58050 62507 60531 61094 96341 43461 92005 69353 89599 18725 49819 81009 14929 14111 19608 29638 24054 19270 97515 43093 71757 86401 97177 46057 2221 89465 38416 29410 72737 81663 47761 10250 25073 8831 46291 30847 57765 24241 68854 34557 74651 11449 37689 15769 36991 91436 43309 53401 3751 10847 27560 26352 19785 90888 43826 30237 5856 1081 41451 65103 28389 74273 84171 31084 46667 51277 6480 45511 94689 48875 61161 19845 11641 78695 86297 95451 71173 40278 76519 95634 65439 66995 86429 77737 11829 49502 39209 12151 65729 62021 83513 46553 10486 81012 37189 24537 69345 14141 83346 10349 17617 67715 55635 46376 32547 10368 23807 84081 52781 33447 21232 33505 65763 37427 80385 62893 80132 76563 30249 1057 21437 25003 15404 2726 92132 68079 37035 2168 45809 41647 68515 97981 9705 10009 35471 3945 6953 89603 42839 27889 22874 11993 28716 51713 28361 15343 30379 23839 67852 49832 59531 40796 38081 80753 16510 68775 36601 75485 54431 69043 50503 3921 71773 72559 85768 11938 49473 37762 93475 59825 34377 98070 76925 51510 48885 32165 16241 9775 32223 69288 76553 68409 11464 2974 29377 99402 22918 64392 68763 69626 82717 86897 19724 95166 95586 89497 93658 83901 41779 43992 31549 40637 54431 65661 40063 13574 77083 76925 17473 53155 56005 75169 90605 13557 97191 5321 67873 825 35561 44374 19181 92493 43847 55541 6459 16677 11539 72251 7005 31661 79386 77463 48677 29697 62256 58345 76429 92702 26557 57687 84357 66155 63902 92419 86091 12215 19041 4549 18657 85729 70106 29391 25823 11255 33699 47527 10450 22681 73807 97954 47287 57717 55781 68273 13457 78497 55805 21631 34984 61829 72050 23125 1469 37044 60735 75477 16817 34019 47600 60272 39437 75825 86465 35885 77315 67961 69909 16949 25978 23688 70209 55433 59805 24391 17938 52286 41321 79792 56129 473 97853 13337 58239 75860 10965 86657 41733 25825 19409 99577 60926 49841 5012 10401 1553 14333 42072 20570 89686 32061 97011 26765 569 41445 13800 16167 37129 69998 61243 6604 36521 44311 92161 87785 37816 2987 33933 48657 69915 16617 88463 96553 75111 51384 6219 95737 55049 9363 87716 32069 11765 3293 61194 58737 1866 69513 40917 40320 89687 45024 23533 95137 3421 39546 75252 19709 51329 9851 92802 18847 81897 16501 2413 92796 31760 87349 15976 28785 12169 73473 93781 76489 53781 87585 57965 34005 28461 89548 96210 11513 31417 16232 50226 57201 82053 12354 98767 74753 71217 55155 58953 99082 31661 83368 15514 6441 99481 14477 85526 53969 19205 18512 62653 6681 72195 39241 12751 82716 82816 39493 77551 55729 63249 34784 45681 12421 13629 9435 19495 84404 52602 81022 86273 56659 32737 678 59307 18652 1343 90020 39113 17556 46256 23933 84813 25689 617 53961 53625 9453 94988 44139 25641 66333 71265 54639 68901 45031 84293 93421 20477 31042 78961 95171 93125 73191 95425 82471 31164 68241 7321 72962 64408 24093 67115 72283 18353 29088 45391 81218 1749 80029 68444 49997 33765 67671 21067 14034 27793 85121 97665 77190 60785 51429 11597 4991 31923 19784 62185 20057 81817 46873 54749 13824 30657 84173 77707 72889 75269 81289 29893 84773 98441 74193 61372 99801 56688 76907 90730 3651 66201 65503 26993 83996 26237 9149 72018 49369 18421 74919 69461 8483 61037 97029 35060 62909 36721 81761 95625 56629 84746 71379 2851 59472 75255 56373 99024 8195 953 83978 10109 83109 59529 23548 4465 97566 16685 38623 18521 55034 28043 78875 79073 71874 65217 36959 93908 37101 55581 55697 65214 53507 20500 15067 44656 41511 69267 91095 33173 55733 62083 34057 76529 29388 52590 6153 4725 99973 73747 95909 54713 48961 76535 55276 9473 65202 22241 63929 29141 51226 91292 95177 18097 17590 46653 60289 17291 48019 95560 2655 94285 53619 3997 3495 64061 88929 51789 2233 37990 64209 80769 85133 43234 79288 46663 42881 10638 90469 9165 81333 81185 81515 46473 13700 15119 74465 30491 22089 47821 59224 37929 59267 87775 10017 16198 40729 37913 65745 24161 69445 27449 60955 28663 45753 27918 20563 65708 20961 97912 60105 83131 53185 41679 34032 9621 54793 8525 24966 90925 70325 61389 83795 95913 52561 39713 4257 77921 7603 52963 67377 48543 27345 20035 29106 50007 5571 53141 47106 48855 96876 27313 58660 257 94233 10721 16969 32749 20027 24693 21217 47 97474 56617 62987 98468 7145 57193 39399 15445 71173 16410 15950 72305 64469 34541 97069 99365 79985 59578 54033 90825 14732 27418 72801 1501 43627 63983 5292 12396 95534 68385 1956 8145 86311 75699 74751 14774 12555 5313 69955 31800 78089 11861 53108 21686 80033 64935 24756 10607 1765 23815 51078 33068 29411 12682 72605 76687 48156 66521 84248 7538 32313 68596 5517 78615 48994 99240 66693 19933 5153 31905 11520 56049 53883 33895 40011 9721 64081 35777 14973 55771 55763 63809 9930 86470 42489 52333 20573 80709 71447 79183 74932 19949 10945 10355 12537 34766 78126 10033 17321 39593 21427 38113 95737 77089 8241 21322 66082 7281 90695 46733 86645 73635 60429 78995 99171 4485 67795 20566 6198 68993 60977 32169 11093 26016 49345 44785 4961 98537 81615 59557 32044 62861 55025 33352 64865 53477 12089 23489 19243 99849 1233 42728 92123 10503 20531 11866 30049 26249 31037 23937 14449 83810 94872 50931 3581 15645 94229 62367 30305 485 48456 39425 8596 31965 74685 77601 78261 35087 48990 6941 17273 6657 19114 38162 37109 80514 81547 61770 48161 6116 20261 26673 85304 76475 51200 45096 66343 86209 97538 44041 92418 14589 97929 37605 1089 78388 31854 69889 38451 4606 81439 317 46421 52250 90612 28176 76347 30773 82879 19685 2826 67433 10741 80345 641 45862 66773 58125 38617 22211 60204 82434 78286 60196 99141 61621 21996 98302 94579 40053 65463 73365 72867 42953 9289 80353 89485 96991 8981 52171 70177 99289 10999 1661 32377 48469 75993 2321 73713 74600 71081 69327 4081 95012 37869 76177 32803 55315 23689 34596 84047 6144 50384 3348 48778 69782 4335 63993 25218 89767 59221 19983 71351 65357 87579 34954 57325 31366 33074 45829 96989 38305 98901 89892 54503 41551 43514 92254 96019 66181 57749 73830 80193 33955 50919 27455 7929 52575 96913 44449 71209 30163 16881 59329 9777 49065 61676 46931 44927 36985 4277 21284 95903 89767 67160 77066 10061 48431 17041 68997 84445 612 93577 51681 10881 92567 95841 43349 70545 54047 53745 18335 79693 81551 96897 25650 3969 17651 72002 78847 14801 36565 63011 89 28763 64361 72606 8183 95165 15775 79240 86803 46689 31110 37409 91284 5793 88177 35585 7657 11972 79009 30623 19195 71690 31407 49177 24827 12602 55685 13785 60479 780 24167 67543 36862 96742 63622 64791 38396 41821 2513 59033 94585 72579 96116 901 52480 89359 53346 60925 98437 50859 33228 7073 77240 22935 68993 39442 97961 8305 78548 44513 32933 75026 15337 76305 25137 76911 17723 3208 75918 92611 57983 43111 73917 52936 80429 98218 65467 77729 37499 65004 96034 73555 14097 28035 12215 43325 65751 12063 39186 56132 41851 22909 94979 14843 81689 94401 32044 97941 2367 3832 5603 76515 35767 29217 15455 53992 72337 23451 97601 60409 65553 93395 31065 40681 65731 39221 60856 44227 14989 20207 76441 30613 56113 34105 37739 37675 4958 51969 63785 93127 40531 34917 71862 86459 27225 12892 26065 52234 16143 82523 51718 7305 3781 72657 56202 2135 57803 28732 86784 60565 33894 28745 89797 86417 43633 60777 46581 4353 80465 14998 74184 44055 61117 52278 55106 79009 7793 27846 2550 88239 77662 83341 5207 64383 71337 13585 24951 42563 29523 46989 35600 85630 63760 96372 74053 35829 56299 187 33694 30877 49065 35263 29576 82881 44209 54543 59777 55834 3201 68283 60509 96226 54623 60097 54257 90525 66505 99067 42527 39645 7841 829 58704 76629 31967 88681 98641 87652 42465 36673 51393 82245 27369 68129 97697 88099 42121 21281 48866 24711 93953 58790 83040 72985 82271 71073 84 58070 19363 9524 83845 33914 38491 22889 5097 19294 3630 59215 53559 87819 61894 36202 10421 19213 71857 63245 2265 65417 99597 47537 49971 82261 41079 23485 64808 64583 18827 14357 58165 79882 79952 13569 18093 44395 62599 76136 8431 11390 62621 9001 18401 30593 95867 46833 24463 65325 66686 92704 20922 58151 58527 79917 33535 98192 5807 12109 7048 81602 43514 2497 25681 95629 10097 85222 74011 4958 30297 21467 31134 59585 97678 52297 99470 34050 54563 94031 38283 97620 70947 44260 40159 87121 21186 99629 29946 48085 45255 71706 41793 51181 37617 80761 42032 38737 74960 99232 90327 70009 84930 86569 36309 56359 86457 99573 68500 37522 23329 30525 27753 13106 47765 450 82497 72907 24803 50783 31129 72950 17497 56987 21423 69488 23096 32630 34911 95147 44328 86244 10285 92567 50849 56824 72745 99911 1095 39031 40321 82835 3613 34214 64597 22449 12023 45835 84938 33425 77738 19889 80227 39105 16911 29589 99152 80865 9377 69713 84273 82851 34691 94003 2789 88817 16661 81651 41742 4482 76047 68113 52444 98347 55337 5913 81951 16516 68965 19371 75591 51029 24833 32961 98002 6543 48799 18207 26207 72663 82785 82367 47990 52289 75057 97359 60318 60597 88633 1437 25328 97099 70249 87260 20545 77502 60554 40577 64921 3537 42021 91405 2343 81834 50649 58652 79985 62745 42381 96845 48409 23928 75506 16383 58089 88963 99656 7896 42227 35265 31129 80257 40793 35210 91141 57895 51083 96002 73906 38886 24858 27857 11413 52205 39857 38473 75773 80349 78069 37765 47171 52477 97156 28879 43136 507 67000 93451 64529 48679 46096 42822 31302 63471 95744 1476 38369 60212 42625 99865 8616 80555 86713 27423 27297 84593 23418 85921 45325 28560 37993 21669 37905 21745 2767 90137 38492 19249 47274 9829 38176 23621 64355 88996 59153 65196 72171 32710 19574 15149 56977 40767 45177 99943 63586 91101 10223 12305 92467 58721 9215 62755 1602 38157 53744 25525 96380 49153 2809 51733 43637 9793 62387 85921 52553 76523 94094 971 5089 31885 82277 57711 35139 52789 45689 96914 88904 89758 2971 92729 53181 22630 16388 92369 98660 35389 22171 77585 83813 38362 37459 1527 7021 59119 69505 3057 50899 81683 64759 3273 59274 86777 10951 96363 25177 71308 6951 64713 11905 32612 66851 39841 79368 70447 45195 58401 52991 1311 42021 36840 32041 11809 17665 9302 71961 65299 24221 26559 96589 54255 81921 6222 759 58890 61201 12611 76471 42281 51834 74157 33041 68202 71385 90549 27754 55990 47804 5352 38917 59556 24216 21161 36882 41402 20275 30881 88927 42679 75409 92803 54501 13589 39113 84065 99406 97522 58339 11935 14081 16981 87615 8397 55891 61777 28161 25087 71 90254 58622 32651 19153 20577 39735 97993 23777 86943 80757 88181 20008 53041 79265 60409 817 7177 69173 97270 52672 85665 45637 85305 96613 23143 66701 48567 72455 25712 85001 69500 54689 15993 28519 84413 53345 90169 75267 80713 12185 99421 54723 26209 38757 85698 70678 88059 93769 31137 51347 50887 74401 82593 53161 51367 83105 23741 17373 21733 47788 10152 96321 89043 37457 79533 26081 20796 86205 68326 8385 3039 6393 14553 721 21714 59037 86089 96721 80527 58457 82453 757 63249 13973 60305 50056 56453 69533 62787 75804 44019 51631 417 64349 61985 7923 36602 12515 26082 38343 81439 24248 21785 50555 66961 60606 43436 64523 56385 11593 25441 9105 63462 45193 99783 68747 13293 29829 26606 81857 84017 23045 23705 80093 29157 50915 36289 17603 89695 32135 25485 6797 33185 65441 61623 25587 72757 76346 32868 6693 73875 49849 40173 8743 94973 98380 46830 38437 63002 77873 76806 23364 80183 73097 25737 73195 58450 78409 79265 83351 20498 15867 47411 831 86929 69505 35305 76881 58673 65754 66433 97842 50361 36422 88911 5385 76356 24503 10197 98721 28503 2599 48733 72597 13352 31611 59677 8599 31751 11673 91373 51111 75731 89811 53909 43634 95417 45305 78875 12857 8971 30765 19935 48255 74281 74505 55029 23025 65633 55249 5451 85769 84368 23321 758 29452 24897 41777 70321 26581 58260 7729 78358 28064 57141 96545 14369 16493 14925 45014 63630 74293 16255 73161 49809 85825 97102 89022 99652 31359 4311 11895 72510 40441 44193 63841 65132 14209 50710 70933 39426 4957 96373 87507 44751 90124 26093 83337 98070 49532 21345 41867 93498 80033 55953 44488 51898 63258 66181 82877 98855 75265 41101 25338 95783 63856 78587 90927 8825 67305 34183 99344 5678 2573 49285 22113 41110 5340 26173 83965 13870 18207 5879 17824 74333 61705 90230 15966 65505 59915 165 5610 86540 25396 54948 78258 13673 33093 3014 11273 26695 30110 66490 58822 89995 5987 14184 76713 91536 65054 50940 80835 72954 71909 55589 1174 41484 47503 53413 95429 99135 55441 31992 703 36525 74932 25107 78865 29313 84057 61838 1893 32353 24313 52807 30244 33200 53870 10062 1749 21201 4231 17971 24961 54255 93201 55241 76273 87540 75265 86692 86572 95065 82598 4799 65833 46403 48484 9252 22553 54401 96213 91041 70613 33409 37898 69727 29524 80065 88565 62019 69473 77016 74769 40763 97995 71679 36673 51777 32831 54904 33906 8172 35289 93473 71585 79919 62993 73841 41906 51148 23533 55741 10102 54813 815 10539 94177 40355 65893 44873 36451 38679 34549 63960 98981 60744 65712 74776 26991 58785 12885 22089 91211 47585 84235 74349 78142 11691 44944 31137 73970 70625 50819 72829 66249 67228 74187 913 2195 32657 6617 98421 83745 86401 88797 48209 10895 66466 99449 76373 85633 26887 35972 94851 53926 15377 94881 50177 77181 85412 80526 29361 26684 69032 26385 93057 59231 32993 10814 10477 32725 27263 93925 29465 99057 72961 34281 86629 43197 81859 20586 53465 51661 2393 35377 99697 94997 29257 73985 19681 81857 28941 38673 96939 12161 65249 58969 74475 31659 97305 62632 837 77097 56705 66073 19419 56326 47767 98561 80261 27925 30447 72406 78521 88999 39597 26274 48107 6629 40805 76945 64509 69745 26843 97703 14856 18917 64067 95057 46093 23053 24093 66190 74728 12961 2517 21769 17429 2352 81665 74953 24460 63093 14113 36097 35021 31108 77089 69661 20049 31596 82664 12923 89027 75542 62252 87265 53473 37077 54791 26163 97857 96836 96761 92716 61193 96238 35829 3169 64049 70394 73027 8768 93930 63350 7030 89173 67844 98171 70787 35221 87455 9918 31280 81144 13623 14637 97746 58637 32715 77070 93090 18311 60124 97525 8233 58625 73101 28097 69933 77047 87941 91669 66192 15088 36445 86215 17568 31324 76742 42310 98227 73155 21393 80212 3559 99301 96873 39781 19429 59681 24523 85623 76369 42551 87645 19072 2007 35601 92000 10793 62449 74391 97753 28131 56468 4473 63409 13128 46945 36247 81773 58565 59135 26593 86279 67969 59433 44877 58994 99229 65397 12737 46289 94249 75431 76219 63937 13331 44087 42382 21621 13822 92081 99827 11853 28663 33823 50133 31969 82471 63003 93893 26923 37439 12041 37703 85117 56118 96309 86562 39568 21611 82980 39832 94529 7992 40969 52233 88609 2093 35745 84709 97763 87425 33496 82333 27177 27341 86284 92307 5134 96379 39509 72912 57853 7518 26407 42959 17586 52088 43969 41895 71788 76193 60173 9705 19950 39305 47553 85478 65515 26138 8617 18835 96401 29372 15137 89303 92089 82767 18153 24081 54005 96256 83729 93225 39327 113 65521 9153 71427 75129 52155 77552 39409 56703 1511 53585 30977 11577 20134 84841 67360 49281 7457 61977 32199 18129 40979 72512 49022 50321 4330 83401 66513 21455 19869 93719 20306 77194 26849 99307 70529 93651 25094 48781 13239 24921 27531 32347 81537 29633 82869 7183 53257 57501 72157 68343 79710 82455 16936 93039 38345 76287 45901 28345 87819 43745 33388 38724 22395 14571 53335 86847 48625 35747 62425 56691 11137 56185 93493 49161 65148 26123 69051 75497 64609 91940 52465 74945 69709 68287 55841 50421 77129 68231 21738 22289 86877 31437 72620 33145 25821 38801 52901 99756 44701 78187 67477 41329 41841 27567 97874 47455 79025 76467 96465 21863 85143 15274 1177 10815 79367 65982 82289 61847 16377 75698 96449 41740 26025 41801 98189 27448 58040 39864 8036 24306 81944 39553 47012 52922 69093 77313 77787 70913 98035 98824 33182 36542 15667 23257 82619 95119 63687 63583 4858 31830 19001 3293 78485 39230 61727 64513 94247 89110 77007 25873 30216 83611 33741 80912 38361 75409 69394 51511 97443 11770 76297 63655 149 23553 54377 3453 34135 1589 17029 74320 78569 6707 69167 96380 40673 52879 17985 72289 21409 40487 49030 31411 72310 50497 2245 40968 53529 9027 94151 53295 58073 14227 54849 29393 91813 50889 52257 38004 40513 84849 83593 75513 5549 89477 70529 88073 99756 7243 88584 98101 64648 75197 70993 1381 36187 24071 31915 6129 29489 20417 85685 85217 85606 8161 10936 72229 7855 70241 22145 66559 35481 59579 61961 77292 94112 92274 40457 71272 11109 9746 73570 91179 6981 82491 89571 64895 15863 25349 28002 79711 41560 69455 29163 67447 40934 92679 7538 403 84585 40814 12077 93457 72630 87266 2321 4324 40737 94954 77609 73885 20077 23733 66454 36616 3234 43357 51435 48851 65215 90521 95676 53589 42975 64597 43745 67937 15197 60245 3506 33613 89207 71987 77754 31638 12385 26461 50839 67709 98505 30365 45715 33901 61933 76959 22697 6833 82492 49302 53895 13533 27217 34973 68821 39981 17473 56993 28965 24172 37825 97268 7865 61801 4629 85842 16505 63033 26250 96245 24137 76718 65689 36095 66380 15290 8327 42189 84520 2733 83708 2485 62785 71435 36303 50939 55770 91362 4573 48027 4739 24745 52949 7601 59117 21262 93316 85067 71549 13921 61618 95793 6161 15802 24370 35733 75221 68615 10199 46203 58254 41675 78461 15508 77158 52145 76478 95881 4664 10857 43599 27665 28701 51777 15531 30173 78641 91737 80113 24680 93849 61445 47317 82217 33007 29419 25003 39189 43063 72009 66393 88950 2365 16929 71609 2925 36549 33962 99737 15321 30119 53821 36099 10401 48797 50604 64717 8672 94646 3306 52486 41038 56483 28771 62913 69860 97473 66729 49057 76933 42685 25979 9080 21151 29245 91921 37098 92939 88261 64173 91578 71521 14726 82636 51717 47665 29609 73217 66613 26981 84125 12881 70709 69140 30250 58055 22645 69506 98324 53641 82809 43829 45945 5945 75809 54038 93268 85377 80986 86992 22629 53687 22507 50563 67499 87346 42099 692 60641 59197 749 33865 69569 87123 72225 92007 20097 51168 26087 72549 79578 75589 71113 3543 22337 43923 44965 41835 62949 22421 21825 74813 65357 8913 96683 18903 47349 42119 41034 89169 37205 56045 14082 88685 8401 72933 22615 80417 69351 85665 92973 44691 88393 77080 80049 71092 24301 63025 24109 17234 26046 77391 38997 85153 80684 6537 24469 67518 49701 1769 5840 95949 97355 67553 77549 99269 51852 3113 71195 78177 64489 78249 33437 48807 30908 95377 49579 27117 81889 71183 34873 93961 85889 21061 62755 37687 12314 68081 36299 3651 49863 64817 86285 70571 35524 49505 96327 72879 86939 4849 87186 13917 96009 6617 63595 93478 31171 38809 76159 62849 84818 52640 48407 71989 77169 36358 56501 76045 71089 24785 11765 83317 45053 63439 29381 35735 65021 12107 52501 6276 28975 53774 44924 6420 19545 98949 47797 56143 32845 36842 1113 45170 15633 25851 93279 78061 80598 79001 48890 33503 9953 54417 19311 84775 42770 60105 12607 12633 76264 70245 54973 85386 51621 39175 4767 41669 87053 21317 66424 12909 94995 37689 12865 24181 6709 89669 46916 18643 50877 71365 67969 44943 39832 13081 40007 82259 33069 46245 61426 52519 54865 52055 91027 35599 35650 27091 84929 2131 28097 6225 49116 38759 57315 76981 95809 50357 46608 60229 59725 63677 49953 13683 36261 91461 25311 15277 95309 40646 38676 31449 66241 56323 10545 26992 83809 45358 20771 16355 79614 31173 93569 37421 28069 57873 2705 28212 83873 63067 76863 24767 87559 27735 7505 88821 42356 83313 92759 49755 91017 7809 61758 78145 37077 25780 65185 53593 26106 22144 4268 48367 87815 33329 33547 52713 77633 92458 71977 96227 80589 45035 61192 36233 45561 20421 33215 62292 59761 57355 45188 60783 68904 37505 92984 30545 19156 40577 31105 33551 70505 27334 48670 12817 24248 47933 71507 61853 98205 36357 97009 21766 40417 98609 51805 97548 9833 1133 5806 9722 73249 94535 74379 32587 14214 28070 25564 90758 72847 27377 11718 73509 3921 8504 90308 61441 21570 6630 28905 50245 86722 53587 91645 12293 50775 22286 97681 97747 34701 71187 82813 47445 32001 98959 70401 22289 5637 56753 84781 27714 34671 32257 52976 75413 44641 8349 71855 77079 91890 69238 19963 85180 69945 93121 28302 53957 38085 74017 90737 19073 16113 51073 6261 72289 62035 34325 80209 84973 36245 35571 71334 30473 95613 27561 26348 46435 93285 44557 19921 83956 82537 21122 86005 74060 29416 7089 23001 13153 28266 36203 74471 73745 68299 72541 54748 76632 61065 42598 69293 76889 75979 40899 94589 58113 46161 75565 93825 66439 58851 21643 16321 74673 86357 60513 85342 92713 49295 47276 40986 48579 98381 27003 21258 48965 96322 18913 84695 83383 64773 85803 44728 95958 19597 75685 6213 56428 17633 31767 32905 10393 10285 49400 27608 11042 91575 85923 18321 34577 92533 26000 12003 16297 14522 92225 6677 82383 19561 82991 63265 3385 13430 33159 82929 88454 12249 39663 45461 54537 30321 92071 10464 69767 36545 40786 60049 59383 73075 94465 65972 99070 89425 97544 36189 82797 76343 27773 111 55937 80038 94489 90244 65099 69737 69131 42963 65060 64961 65691 17690 3041 2493 64993 47051 66667 23023 87315 424 33433 18783 48577 68177 53492 60715 82481 59121 75704 97372 57703 56359 15497 68405 76755 59969 60547 53740 5377 3305 24454 43505 285 95004 82761 22321 891 12163 42213 2243 73185 275 50751 65908 52796 34811 36407 57681 12045 29857 82349 89959 78010 75299 97547 29343 27553 75137 10445 61237 81157 18053 15549 82671 20893 24179 85137 75077 40471 91297 89323 42545 90681 3697 46491 91837 4545 89621 91089 39695 98857 96761 93409 5834 67465 48689 94327 60324 10129 74709 15374 19237 42548 41613 56225 75089 98792 30005 90152 84009 18001 53607 41025 41563 67381 53979 90267 53417 20898 75763 13379 89852 56265 57831 80227 87809 6412 47515 63521 45992 82845 95697 75448 84065 40244 37563 91425 55161 29595 71885 66151 21079 49041 67349 9313 61586 18355 91987 44048 88560 42125 97311 4023 93972 15084 35073 29641 47425 31182 90679 95661 60149 33591 96416 82769 44811 11553 11393 81771 53722 1425 91144 88904 24257 75689 33477 7460 38273 88329 70920 91993 65125 67681 38363 95044 89405 33345 92495 19072 79351 43359 10182 75067 29746 14501 75306 28749 93138 67009 32169 64416 79383 14864 1962 46799 22923 75300 33074 33069 95072 24154 898 69876 36697 75129 59127 37606 3902 89751 19876 73137 19757 65780 54085 51360 41461 76693 91609 63675 2053 51932 52682 96479 60895 25193 7856 34977 39879 53547 62118 51997 11117 51707 58201 73681 37225 95107 88825 74837 19169 17689 86349 70740 73265 77579 87747 86889 14611 75497 2097 23425 82639 67293 52815 14469 26833 8722 69361 55054 9817 70761 50596 98893 74646 81885 19416 98214 94137 49539 28133 23681 25512 50885 47278 90411 75195 26566 45700 30527 84213 72654 5701 2377 91433 72972 96809 55689 97997 77341 83105 53327 46160 217 90249 39719 42121 15230 30809 5127 78253 80403 59441 70657 60455 1129 28227 19771 8773 9269 59031 10385 6705 9941 72755 2334 68530 67729 26835 4673 86437 85761 25729 98717 84417 49857 33793 99387 53453 99517 23081 2293 37165 77751 8141 36176 80065 39502 92673 91325 3585 47504 37836 9291 32044 12097 8167 57729 62584 95099 3265 91337 29621 99193 99365 39165 27401 41750 50863 48425 32647 84167 77053 71845 21439 52689 85412 25546 34814 65982 78132 88193 69560 43939 64181 19482 52812 83993 58963 64706 627 54937 11222 97176 22977 89357 31009 67301 85649 75697 60996 40019 8897 60065 21683 54219 9823 35745 75081 79817 27129 86239 44129 95659 44985 95258 24565 88201 4877 89974 98411 16481 17289 53403 1357 73969 28129 46925 51419 45097 8497 25113 45655 15675 48827 49185 66766 63905 72563 61673 40717 79393 11614 37697 7929 3084 34589 33632 22291 612 81630 16769 77298 87633 48160 71548 57873 57829 16137 31082 23073 95041 52097 73025 52551 70802 17432 94937 6841 75231 91089 11265 57121 44369 58219 61721 26375 36430 75391 15931 933 46425 55595 68312 45919 14124 10863 17493 6652 29254 46989 20186 81801 73515 96593 57943 10369 67281 46321 73995 29852 96371 29597 49001 81544 54334 76537 24577 65350 29217 78540 47953 57609 3253 21665 91375 67385 80999 71320 86269 8756 68997 8217 95386 21134 4711 92987 25943 60721 63473 23065 49991 22931 65681 22113 92281 70569 7401 35973 26379 29825 12632 19838 81012 811 83431 22465 71681 9097 65219 6523 59005 6433 68373 60236 38161 49048 32713 89685 75465 40082 21789 81213 99613 77190 5125 78785 57715 76207 72280 42534 84721 82307 4057 53613 7306 5897 15129 97194 84363 58369 23057 51443 25537 24009 5561 9832 43515 36843 74349 80577 50769 45498 68615 89441 74213 17353 49723 43720 20563 22833 37475 86931 98799 61149 96381 23089 50469 61625 66764 87845 10113 85527 81881 68381 96225 25728 73909 90193 25597 78164 36944 86967 54703 4834 50331 75945 30490 91074 7185 14657 67731 84940 31790 3315 34290 40715 63247 84737 59017 44213 21213 13585 60281 53381 42389 14858 76066 18721 15076 61658 89385 29216 4033 28573 2412 98070 43475 16717 44089 66741 84194 51265 84358 97411 86137 22359 37321 68547 32871 1193 48053 93229 45765 7403 39970 54765 34577 26199 3386 36056 36379 5073 46453 52211 52581 53476 69558 44049 43441 30410 50648 92332 39850 53705 75127 64145 44306 83106 89260 69686 42928 78150 18883 79073 63986 19990 5605 21595 74584 21569 44853 57481 79855 68063 25377 37693 82060 99220 95709 24746 32534 29617 17655 2047 3441 45153 84061 33113 45165 44145 41871 97046 72505 17691 16162 2251 6392 6534 52964 57429 83557 69705 77005 25841 48044 82305 86618 79399 10420 8919 14825 55393 23909 76338 65467 65307 73005 9489 51182 16754 93853 31449 84131 85376 70133 89297 14704 78479 26041 52275 14691 87161 6649 9995 88817 10743 34413 32334 80055 82837 23813 68825 38521 19077 86436 19021 10620 72201 85692 2599 2365 29383 67197 67617 75038 96031 33177 47659 1119 58657 82171 80027 92951 41973 88145 21582 83585 62131 72575 33424 3882 20769 39685 65281 83343 81719 46233 18387 52611 28137 80967 94861 44041 77519 94851 59353 83441 10177 82129 5009 4073 8273 18404 7418 85523 49365 92129 86717 1045 15979 69202 13673 2702 17291 98046 79500 3215 73609 49753 56165 44097 6177 68783 11600 9153 74318 48591 48829 17105 25193 53217 52855 68752 30223 66100 15957 67290 97507 35789 59241 10901 9077 4514 52057 55397 28649 43540 27309 42985 88355 48733 2173 63599 76976 71191 42371 50560 56251 90571 53819 72790 5739 78208 59885 53693 12235 69029 57795 13633 75277 50513 65852 76661 80609 3046 8080 97771 20299 15642 32006 70755 57889 26223 85612 41624 68132 30929 99381 54542 21039 28477 83301 84006 99536 45193 50873 42080 85889 8942 89014 5446 97419 86467 31915 41157 18873 40215 36350 69529 13491 55915 8705 85914 6741 72073 15389 47953 24985 70483 77974 13808 4671 42089 71552 26610 91343 29571 56343 56899 86989 53890 52249 78098 96597 4705 46383 39056 51570 45770 6363 60860 68519 41708 67128 50484 52269 99213 74077 15368 77909 90002 36391 16183 46305 78019 93909 73461 36213 45897 39617 73678 63401 48089 87445 62241 29728 22068 67602 37534 82465 77971 37696 97393 44001 2598 7034 48387 757 54383 58631 41601 77457 11311 53773 94629 72321 78737 86511 70069 63858 79780 78377 13069 58009 23825 55313 99153 12541 53301 82770 78241 20761 29023 60085 3146 55338 54709 888 9974 86473 62437 86134 15470 50757 49 90281 35256 90450 27105 2923 43967 66212 77030 53993 86197 54969 58478 29417 44447 9202 87468 25681 10689 77035 12479 57729 13831 34388 90716 8075 53153 429 92411 62779 63025 50333 63621 29857 50491 22537 73737 28541 35095 48765 19521 27386 51384 58049 2716 52403 12409 94411 76147 80601 90329 63479 50672 85805 49359 38156 49727 8128 43745 34220 19435 26039 49162 33980 43973 84763 67777 90607 65253 2818 22685 51851 85332 15333 80089 31449 53251 4275 81285 34007 84350 37664 5959 11010 58424 81361 94287 81748 36149 18918 30801 27546 52326 77093 69577 94921 1922 49917 31571 49007 73944 99827 58841 55145 61953 38169 6541 11875 83117 33973 60143 64803 44187 40531 51707 66169 96009 30953 97904 74484 70980 75445 80033 528 54533 74824 58823 46497 99913 35809 80576 19477 99113 32927 80445 59823 3383 16342 89236 54031 36669 89501 45209 51306 26945 25097 79583 71161 7401 14265 61433 68075 34779 51257 57887 44647 91319 82706 15267 87374 23970 36095 2025 36287 20150 69390 17139 45511 62749 79093 1921 86775 19549 83081 71063 93724 27484 42043 70051 92841 88441 98525 98106 25825 4716 54145 2179 41069 54195 73605 28034 96526 58672 73360 26859 32417 52263 50999 44907 21010 85294 51577 71830 14787 26752 96737 45887 1332 17665 48253 54873 47578 54957 16345 22464 5795 84902 97857 64834 37985 81091 86399 42753 32209 43769 92489 23373 16521 86041 47381 75457 42981 39673 31211 84991 47841 66721 74751 59970 2627 2017 86682 86348 19009 11962 12773 65 42165 7397 24943 81793 62834 94225 38825 22701 78457 61744 25241 22368 16121 41475 61409 94952 99995 95746 99353 11097 93720 52639 14178 20961 93601 90842 25868 96595 36359 13233 21450 4547 21910 85922 23565 99993 54529 62831 30379 17213 19256 35710 2434 96578 34469 38785 19855 52105 86901 39801 28673 72681 37711 96009 77975 43380 40068 80649 5408 25433 7865 26162 64901 86437 68091 1289 75787 92946 12897 89465 19981 64483 69065 67285 92523 12926 42661 89093 48644 19743 56481 78233 99575 38533 74737 25477 24897 75345 10055 93607 3253 74315 2337 10912 86545 22649 19383 86735 70498 57295 40139 30533 14906 11282 43777 78513 27441 29413 53493 59898 7431 61593 28365 21481 12710 89937 29009 10345 50303 32729 40522 35575 31121 55189 40269 50761 80718 1603 19716 58960 13191 86617 77887 50279 84143 63778 6695 29487 17601 53945 25248 46101 62456 30833 418 26787 85289 71429 80042 66297 13886 5377 96425 77921 77449 19164 9609 21737 69730 37569 41182 55465 64737 59124 53192 96701 18279 39137 94345 66045 47291 61681 8577 48946 88420 66065 23388 65225 4147 48439 57393 52519 58587 25365 73251 82843 17409 48287 39312 5525 86589 66317 48950 88097 84615 7433 92097 67361 56053 86540 48029 36745 43681 30447 1086 13716 66337 97537 90699 67201 54337 10269 84979 26734 91547 48169 21851 93038 67577 76285 43123 96131 79886 87141 46935 55874 39205 51657 46852 3911 50305 94369 81717 19567 25191 30553 25579 63079 67821 41681 54529 89005 1373 1902 82716 26669 64937 41489 5103 71399 2661 82261 83303 53164 72879 85693 89365 54181 43935 43600 96473 20275 8321 70516 99641 52847 6600 4709 60777 26995 65721 46690 31095 59314 31457 51307 67521 9673 90882 32169 55693 72921 91247 48253 7881 58441 69737 55351 93977 69382 48692 90133 89794 41013 48281 33432 57749 14367 40487 48580 79894 12927 53955 47459 79151 13284 12321 2961 63041 5435 70839 46831 50396 57919 63037 69281 84189 96656 24789 73237 68397 54641 91121 12366 34267 30750 23139 35912 27985 7155 73031 46040 58233 28877 24526 89437 43131 22150 73301 95967 33393 32895 28507 27277 82983 50055 71188 90934 96037 55153 71195 46358 24027 51513 24657 66943 4897 19712 30469 44863 72861 21664 29507 16775 53817 87843 40840 23 36532 66471 47076 20065 27496 1615 16189 67453 84143 69573 58609 2329 74377 72713 91224 87273 96661 6222 54407 33851 40497 33409 2987 24584 86625 88682 1345 53289 6741 85335 38567 38236 59469 2755 85361 46583 94339 36053 17395 12237 24336 70541 56249 17410 58385 85181 54601 8985 42481 63208 87630 25201 35386 77678 78557 42433 67273 19308 93999 27160 58127 40262 16127 63962 91170 87021 37474 16346 11861 46412 24833 19317 55865 16177 94991 79081 80603 3521 24799 31633 65297 8901 44513 35649 3796 50156 5739 64507 13347 26852 42645 30088 79746 37138 19453 86721 74185 1398 64055 44329 16729 58861 94592 53779 52249 40028 19238 8403 19363 77075 34 48413 19788 31533 99859 11553 72823 8866 77182 68631 67525 73156 51025 60617 77997 65295 94239 66851 6769 99407 17669 3791 1860 40133 80324 77033 73415 94311 81567 7672 99648 91007 96653 90513 38981 42834 12537 10429 7521 37857 52160 65467 67742 92642 46721 62112 34933 61417 37913 15371 21364 14345 15393 89553 38970 22455 73775 50522 84093 22546 46227 70565 71846 45921 95400 76953 92507 8903 42639 66937 68257 26182 55411 20201 75019 96354 76235 93665 75881 78172 26229 11489 98905 46717 63345 35617 88274 13381 31613 21130 98045 33505 71909 6344 18297 16933 70857 5539 21782 34428 80326 94915 71390 29131 5810 71064 54763 92231 56989 73873 64351 90577 31529 11127 54125 1929 33761 39677 48937 37041 31681 8581 87459 96604 21921 45389 56731 94705 92947 47352 37206 10733 93506 427 37538 8851 11470 55512 55667 19135 51079 74475 5549 72410 35295 53871 6517 49522 99833 84227 97923 28766 82033 85941 41549 14842 19308 85582 89821 52005 55537 73594 9791 10345 4401 83009 68809 2889 18445 14677 64381 7013 79407 7185 9312 56593 58516 63511 21769 92306 7393 77733 37185 52418 27671 84849 84305 83353 81042 42999 67361 19793 94309 63394 58468 42629 34199 44379 9307 92013 81309 34287 36621 96257 27564 3044 67241 55207 77219 35015 9171 97498 71363 3849 10870 17359 31944 43181 32321 64690 22851 84628 99608 92401 83441 74301 6004 32881 74830 56769 85673 61645 53997 7397 30095 23422 14183 2892 22969 89763 44166 40076 9002 44977 88854 49921 78826 17820 28392 33630 4986 10443 95873 11369 58711 20472 50409 29564 21225 99385 51220 96869 94495 66465 54721 65069 20461 96343 80717 63411 53585 58561 32605 73485 47505 38415 56536 56797 36015 50008 21141 31040 29698 92197 26308 13712 65788 44433 56437 34949 2862 11105 48311 63017 99513 78317 49385 63988 67505 18632 91925 87291 47640 11965 40459 5285 30977 27073 86955 27923 51691 34161 90263 82580 84381 72537 39153 73497 29357 82730 58419 56321 8624 58847 39447 14281 14677 43767 1681 42900 41851 19436 37905 37670 82301 52809 69055 61861 32837 80718 39143 9045 79628 1789 12208 62834 18315 96049 10211 66529 9117 43873 13505 34074 81614 25857 48697 65263 73485 12480 18081 93569 72966 50441 4769 60583 48001 64254 60929 88793 9921 23012 80750 93473 99697 45366 20997 16593 72605 7297 45569 67618 38557 99633 29953 7718 76539 71473 38015 47461 72133 26206 46253 20 92767 58697 43585 63809 44019 15473 72140 88332 13303 33801 64721 75809 53551 31073 21177 36275 17906 65435 62090 4495 78077 79447 16129 12372 76820 989 11961 45404 25021 71545 92021 90849 99963 47601 42629 91505 84377 77042 44072 66009 40496 38117 93171 11204 30111 97121 38769 87621 84177 55929 39593 7101 76529 9469 81536 21331 17983 37519 59179 71236 83143 16884 63806 58849 36401 97389 47209 28905 12300 43489 6260 38216 39453 30585 51755 72513 96321 25201 38113 59513 79201 51186 71012 56745 50123 23990 8092 74001 28075 2397 59341 4766 5039 17092 2196 40673 39410 31849 75918 82649 40065 28017 91621 35971 67513 21647 3745 32301 74108 94399 48705 16197 22805 18554 52319 3881 92734 18676 26387 39031 23801 90291 44677 38595 37089 63084 75908 16883 2820 35702 24673 35491 65883 64000 50653 29508 84612 88866 591 45007 61265 48768 67157 16841 47355 37549 99402 69205 1677 51841 22137 1525 50468 6874 61951 3915 54871 87284 86934 23039 3277 4606 85137 57561 94334 20585 79540 94669 93002 34617 95706 89853 46984 26225 65665 10013 5839 99401 99497 99857 92053 34350 99967 94981 88610 50468 26298 79777 18339 69992 20073 37207 83620 66611 1403 19508 46889 38433 4160 10540 79041 54577 1745 54358 35137 11767 59840 21911 2667 64317 57881 44046 31190 1262 64653 77817 56336 23733 31776 72649 11713 96385 4672 21384 89812 72611 33289 48689 90361 7257 46189 84829 47952 71308 10587 51493 7717 87131 55957 111 77769 49347 28277 15465 76375 82433 80594 45104 61520 70413 21060 19129 17336 51031 95969 40265 26497 51841 9097 95843 15133 40077 7343 5139 13097 57201 2206 17769 83793 62929 80516 66447 51533 12006 63003 64381 69223 78662 95645 43531 87431 62200 83555 88157 57688 33023 37457 60569 30641 6661 42449 72581 64415 81633 86491 63269 77840 9919 79928 3518 77796 21896 27229 95669 97903 90773 953 70551 48214 80129 61692 73591 5363 89063 72887 18834 86304 91242 65217 84626 18449 41994 78465 55953 82743 95681 69857 14355 17701 11081 88310 80241 80159 30897 48733 53539 1777 97788 64857 65287 40768 62057 2457 59801 29629 68705 13542 27773 38401 42355 19218 39903 39457 23431 58265 62261 45834 83427 88813 4881 69177 87225 90461 30563 89443 41664 70469 57147 33296 91320 17066 59019 15225 95537 88725 82100 99939 56969 30719 34357 2809 37745 31279 52929 92536 28146 47141 19895 58319 92205 78097 35248 92252 42363 59671 93379 83965 30630 37201 24233 52545 16580 60111 94919 21064 29065 3555 57459 27919 98038 3981 12654 59984 11613 53689 78732 84640 10039 48449 62849 6501 98097 44743 36413 26353 6500 16238 10020 45647 55425 89522 66401 46166 27171 25675 47515 85722 13119 63333 79331 20389 72805 76981 14986 75134 66497 61949 60861 52455 5885 11041 8979 10188 84353 5379 54441 78994 6097 45175 60061 92352 80573 78987 41291 38980 22341 4360 61559 31695 52339 21745 11039 55193 44567 27317 73489 64449 27232 60365 25941 8369 51362 38545 28701 6537 78841 11809 38809 75565 77315 33455 44036 24096 81827 27710 21069 53775 96753 35160 40960 29420 10325 98017 43503 79583 66657 26188 71111 81177 40479 31533 89569 59647 55321 44628 12529 97517 87522 13549 85833 23751 78265 19103 70643 79445 37353 88703 91441 53051 45329 78940 12205 63511 18310 93849 29277 87757 30526 76185 43177 21529 51251 51577 25409 87013 83712 20850 40905 32227 6779 81278 52937 61793 49311 74697 56791 80133 37577 98164 35189 58690 51673 89542 4755 22176 32413 69718 79736 94587 96265 75495 20619 48224 29305 37241 5701 70611 81321 70741 51465 76705 55617 96742 98225 64177 23101 76007 88508 1359 19500 16681 56613 42025 5439 93641 17728 65707 49413 57301 95747 83129 13881 46113 86349 83061 7207 32037 23289 76223 95846 69400 81468 47114 55588 77333 46393 22277 10589 79207 92603 39361 37379 85345 5185 82825 67464 20427 10557 86751 72821 49896 85313 2581 15936 22032 19958 94107 41035 39029 1437 22021 73927 16481 88419 60388 40113 8001 51065 74239 83805 6211 61773 78535 82394 72703 55675 18286 40915 88348 65827 17030 46833 78029 99785 25879 97 99869 1102 14903 4754 6706 70185 56559 99249 88569 14921 68281 88017 54415 96020 28081 87579 69044 81891 53161 66580 21297 9707 65029 71902 70232 86733 59587 32824 65297 18250 17772 90679 392 45153 16147 12969 78631 32337 23774 4272 81797 97178 71387 47644 44253 86507 34442 96617 64376 31551 84145 3670 71198 59399 84257 3913 19564 20252 86585 33621 75321 26671 57079 11568 66357 74657 93140 13910 7838 2065 45468 31085 35841 39179 91505 9377 83429 36124 23343 18196 16593 70685 3465 90561 66922 47653 77628 69200 7777 94737 14687 85922 34883 36729 32867 9681 6857 53243 97831 44943 66821 18659 70002 81525 74803 68689 16789 7385 65523 74905 76572 20903 90983 44116 5087 22369 77088 40163 62968 88657 12713 90293 90068 40495 33413 71131 31204 95786 62515 91689 54787 4458 81931 33025 61333 9563 96113 34354 99393 56044 47374 37169 26095 81715 46985 93065 68897 39957 14949 82001 1793 83333 97905 80530 47859 40289 45505 59801 17704 87097 64715 70925 81893 7509 20859 47630 77156 50093 52582 10661 83253 16353 16740 55985 8801 46639 65643 25406 76787 53469 78438 80389 95741 52785 1747 47379 29963 83185 27932 97511 57423 49639 31404 82287 11345 67061 85700 28681 5984 99692 79459 83343 68582 22892 88717 7976 14818 24714 39055 40901 10445 24601 39725 24564 6509 62293 43509 44755 9840 65372 54215 26641 28673 76534 46783 49873 6097 64478 42385 22241 23737 90111 42105 44278 91687 53117 19771 63705 58427 5096 14354 61888 39423 57125 98270 38290 92869 29033 56965 44746 28769 43815 36279 59361 8297 97521 821 18356 27709 28513 22823 71009 88313 7253 93053 16790 11053 15381 93587 33613 23051 46639 23681 27944 97097 95905 719 53997 34953 57003 55453 20278 86717 5681 57373 29038 56353 49909 38749 80841 39309 27544 4169 66584 67561 87969 38627 99714 22013 80256 31121 42373 11841 88988 64540 28619 85727 72441 15599 28236 96329 4515 98653 308 49189 77560 52536 84685 43541 23449 3643 17525 16331 62584 96343 15086 15109 83967 2355 6441 54867 67173 89383 30689 96161 69841 35013 50160 61017 13229 59739 73811 28745 59567 88353 34601 32801 55313 47103 66953 95558 29741 62022 62162 94687 49696 7216 25893 9022 59093 23707 82849 43887 97303 64534 88448 5297 67773 90821 39607 65130 43486 69577 52175 80364 9245 92384 44186 8249 6292 67641 29209 66223 7805 10127 41006 75023 52657 15779 49931 8505 86397 76889 25161 7192 87443 21912 23249 63509 86453 6453 33729 37281 29209 6057 63481 47131 57709 2698 9849 24577 62957 6778 35606 31735 25815 42255 51719 79408 15665 14308 95768 20317 33695 27973 15515 46337 15541 3701 16749 66853 1858 48301 40670 78190 21777 53279 75685 89662 87944 32161 34833 28265 7762 32089 6967 1425 11785 97614 63009 17863 16493 48263 20407 79963 63285 82367 31589 6842 98667 90524 34911 3603 75849 66097 35963 47973 74181 10702 8365 631 8139 43497 50323 25757 4153 52463 49062 57933 35167 55780 37820 24336 71281 17842 41762 44040 44339 63822 88399 17301 92409 16179 40060 28809 97841 8905 6965 62158 19489 56693 18752 48027 28741 63465 2095 67509 73683 93837 71905 4555 15089 75039 21606 80089 96578 92245 33071 76229 37421 63911 4102 22711 69035 20051 9661 43424 58005 37302 31633 67474 98905 82353 44721 5931 56524 69726 7593 3249 74241 10313 69545 42869 72511 86067 56385 45137 29647 65414 4037 37425 38853 51831 55402 90908 74777 79519 83518 45749 42257 46100 82944 94935 75736 66577 51374 97517 93097 39475 17947 84273 49431 47168 99967 2914 92148 94373 32981 7129 62351 44873 18950 93275 86905 35970 89505 43701 61116 52939 92547 29206 3687 9922 61239 14045 23113 84257 11351 14885 785 89753 62478 40073 38624 24409 53282 34689 58691 20571 55185 29763 4134 73089 15017 77013 76832 7625 81635 16825 91014 11001 25179 97509 22517 31113 8888 61578 86049 26737 1318 23377 66252 27260 82247 3781 40148 57741 10485 1693 78048 28841 4800 21291 92777 60201 83135 73087 93795 83801 37825 17025 99834 98619 57769 23353 98494 74687 21383 56271 65916 14495 21275 44397 1357 28297 74929 20385 14289 7810 97309 43535 365 37729 16197 42401 41848 88929 8435 40825 81077 14914 87777 32281 53495 59424 13490 11809 7025 68522 83263 2643 14469 98506 72095 62812 42510 83563 35618 46476 55341 60073 8375 47170 71557 13781 59905 89809 49013 96923 61957 47912 71208 42365 46137 22187 48675 47401 43105 59224 73585 77378 30176 54561 69793 11600 17309 39889 13021 84509 40509 35209 38609 88009 18032 4760 97503 18881 42937 28547 1097 85705 82623 8201 31390 2516 34401 73218 22385 44343 62284 23153 52150 53658 59469 1625 14718 22737 35138 93436 95535 74623 2705 79865 79551 16273 81616 65560 81686 94090 92278 88385 89669 70481 86405 953 27041 41281 47711 57497 3109 17024 50227 45557 83251 9037 52465 59000 75181 27813 62215 32374 5755 96865 8617 51320 36249 28953 84713 14337 78081 80863 59165 89535 40307 64339 88947 13351 91163 33131 48679 14335 83199 5483 4299 47225 389 67835 35428 80051 27041 97857 28735 32955 67421 32713 82858 88641 84833 85032 58116 80817 95693 94939 29039 95848 30262 97253 13169 90937 48590 37606 88609 54706 69994 22963 98348 24563 43205 1194 66337 68137 41541 54393 34817 52097 87371 4266 55426 46658 84269 85059 3409 64241 73617 65330 19059 34951 79314 49561 27762 88277 92841 13104 30263 19393 94029 1917 92263 37651 13753 95423 97623 1919 24673 28087 97612 41438 26574 76573 58131 24286 85949 98552 57235 58647 72565 93897 35506 61013 76103 31703 90455 81091 38111 53153 85767 34510 688 35717 89289 72073 8013 28329 40467 52652 80409 4058 78535 33491 12427 89692 41785 26329 75357 89326 57381 60449 49603 70521 29601 39107 27107 37241 20867 27313 22311 74284 52931 51348 92039 35317 55892 74462 82812 34937 57697 47345 77931 58945 36321 63753 9845 45265 42693 48837 33457 8492 60513 98541 83035 31521 37169 71929 17810 14881 8975 46833 77592 98787 49460 99337 60273 29275 32781 4361 65885 38077 2383 45458 357 84055 88537 23359 79778 10779 66317 43633 62593 64225 54657 97760 94937 82113 65733 13184 9094 82022 99803 56569 85830 64725 47200 60604 61587 81635 38497 46082 19487 66513 17109 54033 11889 12473 63811 79745 51946 81209 37517 64289 78325 81906 64305 91835 81985 41495 30033 48035 68393 25089 84001 24485 94713 18629 83555 36611 31001 50625 84463 179 58373 77217 90422 95391 38324 62389 20385 69513 87678 45803 86270 94969 46945 48295 67301 61664 67149 58222 4019 93657 48097 55011 88239 12725 21859 17969 92926 21195 96671 23712 78191 92045 59587 21474 29177 30824 96293 33112 90151 68007 66830 46633 25957 28451 83366 34197 93981 832 87981 94483 97781 63246 33333 50342 9320 77761 35041 24891 71565 88103 193 54857 44593 67969 37041 29862 62977 38998 23609 28512 10201 33714 91335 91929 2289 55477 12195 22106 80985 58533 90620 50754 30981 96625 66791 76473 49490 26455 93179 65108 15906 63248 66879 45412 8654 99937 90789 89613 33560 51824 80055 26781 49601 56168 67459 64994 32381 51221 12965 50419 44557 54204 73249 63366 52866 93909 181 19207 93349 1258 73810 10081 612 42691 98120 92908 85037 97317 42145 27133 73233 88927 16963 82507 33489 94136 81793 75153 63252 40649 33624 12501 72271 35766 82714 82053 84519 25377 38579 46669 93840 67976 49225 29457 41281 72497 45958 93400 75551 79191 53257 43308 54000 89193 41980 9965 13589 37165 70689 39295 72808 90120 7377 96161 99422 14364 57276 67942 6241 58484 16581 97742 76296 7041 25645 81673 16841 97732 54831 35391 52222 8525 68273 58954 16797 7449 93143 74755 33841 99266 24481 17297 83266 17656 13071 11985 72649 51585 17113 83045 38913 10063 76145 84201 27661 16102 32481 68115 7873 93751 35495 52816 12921 1634 83201 42953 10547 67989 4489 96478 68600 19705 74369 70645 60680 67146 94320 25956 38663 32962 20052 86175 17713 21117 14001 28645 75887 20721 53633 75363 63571 23964 80135 30557 87777 39466 57296 1024 26189 17705 50580 96942 23176 6237 98840 28273 19841 92133 88801 37425 91345 59101 71934 1741 70228 4205 53769 89013 68478 21349 66252 97 86169 4479 56780 21625 14954 9925 7527 74001 55277 15281 46430 23327 40121 39064 85677 56108 98007 53189 87389 61877 93279 86093 67351 53542 23689 860 63363 73482 82711 94473 77350 38721 55175 36303 45077 69463 68623 88625 38699 71417 44283 40491 81750 37662 84465 12583 29994 28184 2841 14641 56425 93789 60568 15684 17157 2815 90142 49005 36469 64673 60811 8407 21308 37951 9576 61445 74049 24968 24731 80514 93121 16769 59733 53035 3961 78812 19669 3310 88911 47308 22678 83949 79619 49082 61669 87041 30717 14561 50965 45968 39053 65997 27717 95792 58425 2811 87677 32494 97981 97049 26665 71913 34145 59542 34071 83533 16797 8933 71572 17923 46197 55473 70011 36505 79137 39540 85433 8869 47784 85098 7801 3589 25825 89864 39471 8361 66918 19777 45663 94161 16289 48438 71729 18823 19563 62305 14697 89649 18685 14581 25871 62841 67677 69230 33931 58065 93895 3499 79655 20894 60856 57287 3478 47568 40649 69125 5678 54362 23801 96721 99257 9134 27809 21751 44896 34655 49607 33249 53429 39971 34705 41217 65986 20707 31921 30500 98470 53466 2541 61825 36065 41244 67777 68238 66864 25468 12795 83024 77909 76367 11725 2207 99097 76787 49889 67197 37328 72709 53893 495 48385 89664 70395 75795 18469 68545 29417 74009 92900 54011 89173 38223 91497 2781 60682 69461 67137 6043 527 96835 85097 26667 16517 61803 16412 71382 90356 74961 63744 75803 2607 11104 72898 20277 32661 76294 39269 73733 47970 84167 53542 73215 62721 95068 74757 27985 6573 29685 92538 17537 42467 20044 44551 99559 10083 63797 51252 94524 94241 40464 37226 65527 45382 1305 58474 8343 8127 26713 80961 21456 32369 32536 18293 22721 91875 70421 53017 70833 35325 89288 21197 79699 23191 1880 16181 19387 70933 98640 39459 67929 92232 65441 72277 50366 21395 43451 15411 6939 85743 78409 13580 21952 81899 97169 98593 63945 56977 35413 27497 80337 72625 30929 86769 2136 11751 16265 97369 98621 40283 80009 28701 79280 22347 58001 75213 2488 94234 27217 49709 61430 58825 98897 53703 95014 3909 80611 89211 46643 30273 65371 66643 1789 82347 45455 33858 36871 66007 88197 49173 82341 99390 52657 19842 5685 93701 74813 65785 77485 93385 40363 28339 94884 83543 66660 23427 17911 94507 12421 4752 73184 37108 38012 8911 93701 1697 23241 40001 90974 25231 70717 81744 21484 67796 81585 88192 64237 99921 54913 48375 2877 52479 32550 97433 12721 28913 97731 10739 20195 21604 66756 32157 92151 45169 7583 9993 74864 60529 59930 57441 85075 98072 20688 37905 83810 93831 43783 78324 46767 64406 41948 86797 96285 9852 31344 48653 81311 46655 95149 61683 16225 19956 52249 91773 52000 84585 28545 19168 43056 72184 39883 54822 52793 45445 80242 41883 23563 59009 61413 6274 43733 94594 42888 49485 74319 49397 94436 92577 55297 41357 36371 77485 98208 10364 56065 72158 66613 2665 92028 72853 6109 11370 21215 61479 65069 88605 59966 38043 36847 99605 22217 51393 51499 94673 8563 88289 83281 33784 503 66763 72538 24460 15127 49590 86653 15139 79078 45665 89975 54641 35292 16318 18331 17697 97698 42354 51521 31457 73774 18569 28689 29336 25787 85537 19253 59569 41309 53941 89665 92347 14824 3090 1949 33927 15392 99105 15394 37752 641 7729 37583 57604 32483 40896 12585 9401 27083 20657 4744 63331 76359 26425 47487 42380 90730 92121 81509 21953 86665 41710 93327 86027 27521 83637 24937 90679 21555 7905 25053 77431 5573 90302 71553 19586 60560 40971 84811 5401 5022 4249 24691 93105 39925 85383 18876 94704 15819 99657 80777 92461 35393 99689 57719 97057 14437 98205 39275 13233 86 76102 29671 29538 6981 90795 65482 17109 85091 6913 53333 53082 38724 86429 42997 42161 60881 87029 32097 65269 72705 12703 73473 13085 7877 99701 30715 4399 92057 79507 80209 81829 99853 97601 17049 61409 59237 25213 16105 78970 13849 71752 33357 95561 16953 46353 30177 70537 33886 28395 48155 13297 49141 1939 235 50105 86231 86399 76073 63501 46086 16024 70225 59932 73583 18233 45832 25787 24273 61937 48110 92647 53083 82344 19911 67301 74581 31971 21852 40133 50433 34723 73937 2529 65871 63582 28114 64449 14168 54441 48577 47057 10734 31239 93445 4639 99628 66841 3210 79049 66145 99774 80927 89689 72045 68538 34223 77410 40281 5179 91367 88783 28789 5939 14309 19407 14927 6059 80733 69930 65951 52956 67545 56829 81773 49005 117 98229 72885 82157 36177 26489 38081 19263 56454 39859 31425 25519 1927 14962 5217 14706 58145 78065 32725 14597 56352 27653 77515 45684 22540 91073 70049 79752 42561 92769 13279 57430 7789 22053 15179 96301 84405 98489 27043 10308 47645 81625 70415 14130 93081 79565 62589 69466 36721 37701 12126 21162 48458 79393 77103 36649 3212 29327 64480 72841 52645 29594 70641 69577 78601 45524 25348 95977 45114 91459 53221 64721 46648 57393 15113 77709 91749 28771 84861 55689 41641 32776 65965 53825 6029 44345 18593 80323 26037 59101 38252 86725 43412 39317 98434 36991 41500 20496 40885 9351 91873 45338 75935 1473 40540 63677 86559 51037 34477 7113 18639 75166 40047 19289 52357 21819 42965 10582 83293 37596 93665 21559 95569 21965 71405 89077 57441 91581 59313 52833 92301 50082 53475 36092 71596 28641 15449 41179 15074 91727 31429 46009 58291 73929 32153 25168 64449 92757 79480 26041 54705 76210 93953 48953 35910 5501 65471 73386 33633 48576 86671 94538 17509 22794 39686 56185 69765 38720 46060 76793 36811 31373 8183 13239 10593 74489 43259 43017 60848 11937 83837 53509 40150 63806 20413 77123 36033 39505 51427 75313 96613 82563 75189 85305 2613 96325 68050 39603 86239 59857 12775 48391 83311 91073 79701 30176 25059 38889 92065 77393 96690 42241 76601 8921 31997 29285 70947 27885 65089 75425 24218 56189 8907 29257 93423 20548 23439 35301 20177 61129 82257 85365 67675 54639 75835 60655 16033 10649 44891 59285 72359 60407 51171 79707 46489 9221 86915 75121 61513 74725 61105 11535 43297 13697 3953 28590 92437 75275 87161 54833 53544 33938 75127 7409 24141 41083 90869 34833 47286 30746 4513 37825 38246 98574 65025 41763 26032 31626 49601 88671 6998 59401 41431 72745 11073 1020 31379 57965 46984 26349 26673 16629 28177 18935 10462 25464 42745 18382 61180 56993 86593 63508 26813 78561 21857 52805 8022 4177 43137 11691 42519 38305 75217 1753 883 44619 39805 47915 84685 51179 6069 53509 11287 35095 25925 35093 42845 90489 11801 22865 24201 53428 14297 73254 98502 85789 11737 93629 34365 69697 29803 57280 58693 88961 50451 31257 73111 16473 52707 1289 65473 77461 84800 20366 89439 78574 292 54929 90326 23000 1305 72737 75011 2689 83381 92617 59839 89703 15003 32153 35990 22850 56924 8685 13993 57283 20795 49903 19635 14485 31381 81293 45801 76773 88091 4265 65760 4076 73881 74647 99686 35083 30801 16873 4789 38178 83844 52401 54488 32075 90383 81983 68925 14121 84484 45594 20712 30918 35856 93631 71978 80456 86185 25821 46179 26164 81193 22406 84145 32762 23193 62822 82024 63851 12417 8795 92295 21377 30202 65158 70984 93944 58325 98286 73978 17609 10691 8312 73363 79771 8027 15734 84369 76521 78924 13569 7125 10819 48851 89469 30633 16921 29119 89985 5505 18869 42273 86338 39295 71179 96561 70722 59639 87105 23937 77511 24129 37770 41991 57074 71053 97398 46205 83654 82947 4752 22853 33565 79435 98503 27569 58643 70399 93697 25930 99793 65237 16480 54721 80064 42976 1733 95316 17010 28905 37115 32601 94673 13238 54109 5578 2453 17818 33930 37118 74321 53076 46739 92333 4865 37839 24347 95604 94287 93609 13701 64405 7195 58813 6905 42700 96017 94940 1971 68103 77383 99721 51601 32843 53936 18095 42415 69331 10788 61447 18748 6401 5047 20933 4828 64877 80545 6749 94915 63257 25517 61937 23769 9777 90801 53668 9657 78460 65982 60007 64245 29856 43401 46811 52097 75303 2685 42785 87083 51049 69950 65925 64393 21568 16060 79665 12776 22405 33586 36817 44619 23145 4659 38331 41739 80217 91678 7643 25039 37901 45809 11305 49795 53429 8219 21621 25145 53115 7359 29975 78445 31070 47092 74233 42934 68305 85073 63141 37330 75321 77347 75365 38514 16361 83620 77745 2410 13281 40727 61617 74806 11292 39793 71279 38115 59177 71931 86689 97679 56928 12209 93233 33345 94439 99397 15903 98945 56123 90483 72929 85175 85921 20423 24827 75248 16477 75377 89039 72505 4129 80450 93466 94303 99129 63753 50069 98001 98548 98731 47897 17750 71273 24983 69128 16275 35832 16545 61909 67125 24307 83983 14945 12935 19463 61675 3633 89393 53703 58753 15323 79895 30033 83955 91263 7606 71192 35792 24673 84924 79736 13801 7673 18763 37076 92882 21708 19892 21019 35703 76650 32379 21343 2817 44341 35509 41731 4865 90833 19925 62527 50331 58029 91755 33405 82765 21485 97889 48369 1055 79813 89356 31330 7431 81277 97596 2313 84379 59832 22194 66129 42073 59821 68598 62865 33317 91059 74561 96203 15289 9025 14641 47033 22482 92321 5431 11663 31120 13167 47018 25453 44961 79841 97147 26593 48252 20409 90769 91985 38519 52961 50149 33013 55605 67377 38266 24272 18107 61001 75939 15249 92277 56849 51573 59539 9494 15409 4211 21496 78109 19115 33635 69513 73603 22432 80394 12188 55676 75809 5288 87224 55769 2280 46423 2720 60441 19373 92689 57603 92449 56025 92710 77577 89345 19317 3044 99068 28702 82801 11085 99769 31012 28257 43053 33862 79525 54007 15511 83517 53522 13345 44016 53548 86230 27404 8645 95685 41635 16645 48513 66769 24689 23501 53493 69981 80054 22269 12011 21289 85005 65336 36854 83445 87803 96545 25061 56977 73414 71117 32796 59572 34351 10508 72943 71299 83048 50777 69870 76157 11045 85201 3023 35191 76741 82394 71073 39907 31950 14790 53011 91388 45337 97055 68313 29447 42768 42564 88985 35802 23351 75850 45809 89037 9825 78768 5596 77769 24141 19719 70625 37373 277 76789 50231 77205 52817 84503 19403 20445 877 88785 13478 7983 74817 92801 71541 36607 79837 91697 67639 30009 65713 80395 10497 38559 30257 38885 29570 45281 79137 37135 78356 78587 69009 71103 25025 10365 31949 80897 36977 2154 2372 24417 44445 96 41203 82593 47361 72781 56811 29772 81279 72465 79017 353 92733 25601 1633 33349 72832 15389 76889 45090 12628 41341 96789 23785 30617 44906 28415 61673 19814 25301 77601 19949 27521 95473 45665 44643 16043 2025 61917 22296 49089 65485 6513 22507 67963 64630 35521 14420 14497 68663 23934 39969 7833 92168 14816 38005 87549 19737 1945 78723 11343 79690 19893 71049 76338 19990 62628 2749 69839 19041 33780 77461 32273 29246 40569 13572 83222 34985 76033 80411 36545 80275 34786 9285 29713 96369 53752 53056 6337 96313 96087 18881 55961 1497 91169 91303 10292 12004 89773 94907 1441 51201 90565 97054 96093 63503 38913 76625 75209 61851 98269 16289 22453 34949 60454 30030 50337 3720 44920 87458 58313 90870 79797 58355 1115 42470 63345 31136 84095 50715 14963 36151 96304 4616 89877 75371 16872 31888 73097 69885 58858 95130 33057 8721 48283 27401 31811 9594 13189 78949 4927 61152 49217 88589 82287 4830 94034 2839 78401 27133 47523 97085 59017 34681 85976 19 48829 41837 97207 73185 23160 28605 73016 91337 4409 96214 32839 51113 71582 49181 81801 29232 80757 38787 30715 13829 6525 17649 80321 91817 62013 43423 40181 41229 84093 54529 88373 59261 53189 18041 71249 88941 15421 48963 30335 98115 13619 33760 90523 80521 41529 95685 25345 78687 1225 49293 33615 47223 2581 24911 41693 65582 1555 60248 35305 40795 33211 91713 81195 88931 74089 12325 89459 41714 24413 72404 1433 55441 28715 86181 38673 75025 10330 74099 77891 58377 28772 84498 61717 15777 75721 74214 20096 62461 57663 49834 35628 99441 48897 6705 6205 63919 89428 50281 34945 65563 46529 3585 12540 1532 22049 26211 49641 67131 86178 50507 427 60867 45491 54827 76585 34417 25621 22033 60836 92333 98189 71154 52313 72961 84151 73845 23739 60734 86156 35158 13813 98021 12048 44795 58133 97381 65553 85834 71041 73644 28645 40013 45243 55722 35361 66085 82499 21955 74391 96493 14243 62033 17016 29651 98711 89009 15579 35709 30577 30249 89775 21030 83301 31203 45476 63595 96661 47699 57165 81533 43119 88229 87021 161 21889 737 98031 75829 39331 29021 5033 3157 87465 53684 4267 41927 95041 59589 7257 82706 72685 80115 25609 63 5501 55925 41953 45505 13793 79521 20971 73668 43796 46219 19452 41891 44411 92625 56356 14401 91716 71899 75387 87256 74473 61724 54353 51709 59047 56593 7905 1485 23121 23512 69153 1353 55444 69472 37754 89873 28545 23049 71763 42613 41539 4317 74869 8881 69981 76890 87378 74229 88681 37553 45689 38179 53615 17233 5929 75565 48075 14136 90477 2157 5741 99410 64997 71381 46177 78273 7467 92391 33201 52997 47057 53489 50353 69169 60746 13467 29505 9867 97686 77716 35177 14411 99496 13551 83735 84735 90805 46116 69121 38796 87409 48525 20642 86161 35575 41121 67425 94247 85761 83425 19788 93721 61618 49096 59687 91275 64186 75173 92669 62464 74433 75912 27974 85666 89066 5825 4837 39913 64945 43777 83975 42249 63197 18590 64037 70982 74665 40109 4461 57502 91759 87334 34207 18083 15833 51423 40789 92899 56113 43201 39704 18779 17533 90529 5825 96092 94961 44287 85318 18177 2768 80125 80349 74116 94833 52137 91153 99936 63109 61589 74113 13825 58928 19967 39778 16977 46276 83761 71353 37949 83080 8069 95917 38258 79073 76688 28655 83404 47227 46037 46453 70120 80393 99521 9411 12828 29454 45429 44769 3223 59657 22751 79469 17617 46081 92494 57373 71617 37275 91489 30885 85379 72347 193 40573 80961 17795 80768 75893 96705 51077 41827 23715 223 37724 95953 15729 57025 19337 65676 35391 67154 23457 2654 93410 82279 96759 73825 71473 14902 12904 49497 39773 89489 53935 42059 6153 58505 23845 26537 27073 22787 6034 12320 96701 69037 10755 18719 48520 66501 31297 13397 99685 43328 22191 56149 47422 32033 94595 79187 69009 78545 44743 68754 99183 882 69921 12978 85925 70189 61533 37558 93069 89480 39057 18977 22706 60989 81679 2672 57409 67669 89841 99192 2020 68279 88944 86626 31522 66841 36705 22844 58699 8375 10237 2735 99625 39905 92337 36683 59713 32831 96376 28635 64325 21763 12563 19801 11361 63985 58511 92489 18615 95060 55823 24717 63636 34371 31633 90803 21031 96765 16650 70209 49937 71489 9865 47169 73929 10272 39089 63161 41013 74233 51361 34359 35297 94587 80409 95484 9429 37775 17598 5481 29243 82159 39696 13369 6257 20982 9022 14238 77120 68181 46675 83244 82745 30506 43673 16552 5656 59497 44939 53949 32479 43331 37026 68829 64126 20928 86601 42409 96228 52563 12617 93297 19169 5266 92681 42168 78909 91187 54136 65078 61849 41105 23091 26754 11112 3147 98977 8139 67593 53613 30787 7369 63427 76193 16499 90043 84654 15854 58801 22561 91228 80247 86543 32559 64239 89137 29451 87027 9661 95297 2351 97729 76277 61851 56645 37268 80687 17469 49860 77789 8516 9313 50757 35524 93569 68961 14404 29801 39888 91581 44161 58576 99090 71739 91727 14961 32265 22299 89699 66900 5963 84171 29559 81461 8270 84205 53913 63354 42431 64744 32917 85835 65821 51669 67817 36101 88623 9651 74507 54113 65555 29432 75553 14547 43369 4359 26625 34657 96013 49704 2251 18592 89980 32137 13401 34894 77149 57413 71817 71809 71761 35759 33500 2224 71514 69139 89303 83802 60609 53179 82315 95269 41353 87547 54497 96513 9803 14381 28779 97151 72593 57286 38985 40392 69885 72193 91836 23173 6767 64259 2031 20423 9405 35794 53658 42261 50674 98593 3941 45811 37505 32139 75605 99713 3194 82193 74438 88449 57703 97684 15223 85285 25193 63469 36593 33999 45368 17369 76849 35597 91213 76401 55773 24033 22389 23214 62623 81923 95240 65013 60549 77121 76945 83269 69577 44652 93578 6728 10674 36353 25093 72609 21297 59513 41327 36007 68153 56640 64708 42775 67947 57785 12439 2653 15777 7529 97774 71611 13621 41361 33865 82752 34453 91544 72141 15115 5590 71705 57801 47029 53455 17709 89712 57403 16225 545 50289 76327 83908 6369 75433 57017 36709 28358 68289 29225 81169 34833 84193 21851 32189 94260 47553 59445 11774 47418 61105 53365 66798 43009 19856 22143 18401 14641 83310 13491 6564 42661 71681 68185 69571 6577 41817 93139 91449 81797 34513 15581 2965 28083 93233 30225 74038 81481 24611 9017 68026 92302 61257 17066 74970 12924 68241 77337 36582 69981 57269 17593 84566 26872 88761 64349 92018 59032 83441 96373 7017 9665 55754 26226 81461 87801 80401 76423 25941 25765 39189 72020 68472 73465 64520 74613 67777 62055 18605 77888 21467 76701 9385 10711 22753 30843 22873 53733 78483 34657 83765 83521 33212 14437 84735 95923 76867 38877 94817 27781 79271 46809 38417 93325 61229 92441 69071 23445 60341 93896 70337 23281 8289 5157 56511 37005 45437 3881 4865 65569 4833 76388 28333 91346 76955 3619 58485 14391 65743 52903 70443 23829 4781 6703 96301 61378 29665 72278 31076 48988 5963 91575 58318 6176 57041 66521 86335 6436 86078 60602 30445 47881 41282 84604 71983 81078 39577 92909 82277 97764 69984 13377 39885 25873 91937 66471 38311 14517 4118 11546 93336 3601 257 52589 74805 35757 60081 47513 4562 21414 23201 97582 38043 23802 42847 15441 79500 62353 80205 58303 55538 80601 92306 60735 46664 3541 47954 37279 82441 1498 5017 91249 69969 62494 69597 56433 93835 48301 45521 32841 61907 3454 64806 43791 47921 59983 80087 47309 30623 4485 61393 81751 9697 57426 63053 88801 17717 22121 12353 74577 83043 31496 90501 41041 45037 77041 75089 57633 87104 26973 64111 56633 4637 23607 95503 88778 55901 24417 37025 20165 8097 7377 34957 12451 74026 29 8268 26897 66257 28799 31405 48581 83373 93581 22863 18293 45209 53420 17740 78869 11128 13539 55809 41233 90042 27197 28448 79030 18305 4343 65715 39137 9673 79709 88145 67291 201 77904 41134 64093 24208 47913 38256 9706 94483 37888 4631 89438 29608 65765 57829 10729 25727 62577 12445 45917 83601 8519 4561 10149 87665 40622 49307 75921 91957 24505 4621 81125 95775 8772 58713 51973 75156 5163 36347 42899 22503 15667 13657 97551 71737 83239 38351 53455 79591 86298 84383 37393 14029 91401 15575 32737 95869 30221 21270 49697 44562 78104 61465 80457 77712 2271 70401 56771 79625 49847 49515 26077 11615 38373 95334 69866 18163 25165 13243 75314 58305 98345 88499 60217 98737 24726 73849 19937 42263 56617 33083 9241 51665 65665 72363 90650 43686 68029 39829 37837 93010 92955 6375 41297 34893 21881 73025 20652 32689 74447 25020 22391 84033 20345 77086 12726 7294 38881 13015 35570 47735 63670 33448 65867 94839 51100 96215 6874 55574 59401 33281 21879 71983 27190 20205 34067 53634 56211 52801 18784 78169 83882 65532 67347 53131 66643 68581 36161 55747 77601 76894 66501 13646 2469 87145 61274 35412 68271 9439 15805 44688 26005 47761 38317 8511 62581 26192 88688 88949 84641 91129 93863 24716 4673 88385 61547 44785 7425 57446 92389 24848 56894 57982 73530 38591 35421 44088 92625 2025 48074 96213 93171 9029 45745 56950 21623 62807 23635 88566 73440 90645 10863 38711 40925 4382 65702 98509 31495 57545 84079 85963 29269 16949 83801 14541 99991 41877 67692 94593 89965 24535 67744 76381 113 38945 55881 60518 51917 25893 4181 51035 67014 94625 63053 21231 39953 9417 88653 3017 69113 37757 51046 43107 3785 39511 66889 89601 88841 22081 61880 19560 26999 49777 29656 27156 13853 47481 88484 88338 29337 51827 66593 32933 14945 93457 1261 53184 60260 30489 95929 35363 84677 99735 2862 2893 57297 54914 48812 20588 6977 54139 88139 22255 44973 86739 63507 96501 10591 34145 23368 9948 46250 39917 21008 85554 18207 85229 71649 64961 47949 12342 30037 71737 19895 14637 1067 43228 3057 5899 43373 77367 30685 5284 11703 55771 24199 99144 37441 49051 33991 15353 24105 91584 95667 69907 94329 94001 34455 76791 8431 2625 30723 37757 86113 81801 55905 7468 45925 87012 82749 26541 88190 28929 89437 19555 43505 94039 46216 80317 54705 77327 3489 22041 25273 98498 44112 97914 31334 87421 34345 78605 51171 13816 57997 14913 41169 40213 27681 50323 85883 35961 16226 42116 14054 64257 3830 48395 81537 99865 44993 85814 43990 65135 70190 23637 12339 20903 53841 68065 2347 31681 3591 46437 28213 46223 57141 85019 89401 83147 23496 75377 86747 10513 61587 56795 5461 84543 14640 56129 37165 31400 2588 8828 31745 25961 77145 39851 28440 28765 40793 79754 27201 60609 67932 33849 18143 37217 35225 54551 74733 85237 40659 80689 45510 97123 46275 25081 66641 81768 93230 93944 47015 96583 83919 18128 94780 59185 13977 62904 15898 27621 86909 68886 91217 10946 55394 49941 51217 21699 16321 95001 77569 15961 8908 90713 14891 22937 32439 2311 81339 98913 76309 81249 38003 94805 76119 17345 78315 52168 30316 36897 58788 29689 63885 88465 81101 26707 4797 94843 95492 29359 81565 22043 11841 70769 79497 16178 24201 20329 85651 96297 94853 16321 28862 56977 8613 37046 81708 31609 3205 78426 85193 33046 94117 41735 40704 90824 90304 73055 67753 69167 85957 49613 53154 4225 4864 39045 13534 53293 83064 45398 64271 59309 22488 29095 54405 21687 10899 23451 94485 83861 18304 82913 61613 9762 41071 98889 9133 53574 346 72249 64126 92273 55633 13266 60585 12523 43658 1008 9055 36389 16231 25323 56153 11458 61877 100 42521 5315 66115 80351 21702 56381 88890 16500 26033 98307 91185 71019 21686 95772 819 36862 7988 12281 96757 39821 14243 11891 86058 21048 2529 26068 27817 75809 94723 8284 71389 35419 16789 73722 40609 73473 21985 58669 75737 53871 3813 76322 97053 30305 953 96304 70580 24340 54057 82574 12106 68817 58569 91854 63553 91436 34029 73761 21833 81328 23105 85809 25223 82806 96337 5279 14429 48623 70169 70347 75885 96225 91241 25164 23217 34333 21259 48110 88105 28321 59937 90578 3231 33317 6725 22075 13973 74992 77823 56077 58049 32318 16221 9845 8659 18465 11099 60146 91908 8709 58639 47739 36029 44385 48293 82677 84305 74257 32949 13553 92767 81604 12634 54704 87531 65625 96239 67378 77705 90223 36375 88851 56945 49077 88965 3023 12833 52741 82992 77665 51895 16083 97033 65167 86615 56449 94585 86111 88320 65713 60729 91275 457 6257 29893 11815 96577 84925 41693 99104 40669 61116 16012 14385 6617 5641 53737 32644 38504 18559 7557 61143 85205 75936 58491 68038 71361 52177 23347 61217 75195 46117 32953 60069 92811 36775 22226 52744 5713 19743 67329 38384 96995 24617 55347 33183 69797 72101 56068 175 44673 31033 83749 40459 90223 60903 76412 33918 31941 16297 29197 8093 6057 90841 17825 98513 91675 57081 45985 16609 47149 57553 70544 14805 55694 20249 34440 93497 49041 63037 30877 61865 72164 45041 15710 76069 4093 89307 82437 54833 99203 27077 45065 22941 26517 53683 77169 99053 42401 58885 59053 89405 51599 14895 87913 97097 65252 20443 90867 32609 44245 21025 2567 99293 60445 54365 95430 69858 54393 22545 94477 19061 43305 11198 60606 65825 9953 39629 27155 53536 77961 96151 64196 41094 76597 87025 74697 26572 14033 1625 63184 71906 31457 58946 32145 29274 93375 70505 41761 23307 88401 21 3316 71141 61588 81553 46451 69521 96633 69661 2227 57889 78615 56705 90595 19617 65967 86401 57025 94430 10069 54751 82493 52075 23497 16636 54921 98555 26243 45039 78351 74581 76341 14231 4837 58093 39715 21552 22075 13301 47997 72757 8826 19511 70677 77101 22569 96845 25617 57578 45266 12989 4057 99077 11727 70474 3144 46939 17943 6821 80131 83537 45656 83115 42645 28073 36489 72881 16164 71561 81848 33659 41367 46397 11401 48221 33987 88331 25425 39765 64673 19769 75263 45497 19656 48397 93038 35438 27990 41514 80031 38521 55197 96593 51165 31019 67994 28263 23345 38365 57957 51229 22221 32017 91541 52787 27682 67813 48529 41873 43454 34848 50945 58429 40652 36062 26449 46990 441 46252 14654 98521 83984 79097 341 78369 99223 71249 69710 79277 86331 17981 75207 22695 13187 45664 52001 51130 44011 70306 66892 97081 38569 51169 80025 23293 23212 36281 32285 52523 32094 29683 53821 63289 17936 36082 8303 61391 94261 26721 33773 73201 54597 87617 77265 84305 95831 1981 34907 96241 27726 82685 23873 67281 8597 80695 9675 65384 11041 91170 12157 41186 99353 47052 42177 20290 55063 98902 79529 86945 58734 99960 65962 95896 36009 15393 1773 87353 81139 71313 41485 35257 80023 16393 15773 79933 45861 59089 48737 14826 10562 19761 48801 69171 35963 75274 44528 23197 9304 57811 70019 77953 93861 56577 78985 17220 2812 2941 78996 47233 88116 50801 9563 79913 98161 43701 3423 90335 65974 56719 321 22415 43961 60115 66509 97051 86585 25677 56667 93794 20753 28767 66833 70644 96345 22187 18409 76057 58433 33001 76353 7205 18665 82673 15717 78737 11444 8987 72143 33210 56653 78508 39433 56179 34839 72954 52413 3091 47127 27359 20046 47719 99649 3262 69939 91873 31107 8104 53558 77599 68373 73831 32556 2561 64289 34953 7353 89201 88267 13217 92227 14977 32133 60823 39961 40521 4138 62823 51749 74311 72545 1473 61991 87079 29537 30835 55351 56375 44970 56801 76351 83869 13499 44452 82585 70553 17829 67491 36173 51915 73379 46335 94457 9365 52099 42329 66570 33133 43561 8127 93627 82441 83321 4367 45925 88368 29291 24428 64698 20195 95426 3157 10577 34545 3119 98065 80625 55073 63096 19205 42467 52152 46587 78381 21661 96845 29073 95645 96161 1386 69779 76395 89967 34433 7465 42855 73245 40357 28705 43 92940 17975 14707 24077 11938 24808 51007 41254 71727 24893 24439 29487 37901 26369 80316 43225 34445 84435 5265 29861 72873 98610 13326 59414 10430 56493 62883 20079 88610 88476 40709 96357 49044 55589 76012 96191 53361 3308 83881 70547 13402 76345 96553 37965 96419 45793 31143 23340 82109 70092 32799 50497 75529 1061 9886 88884 90553 11028 25361 27412 44513 63905 40321 90601 71827 22934 40643 84157 81449 16345 7175 38645 8882 31481 29051 56475 74219 16987 54705 1729 30637 27905 79247 98273 16937 78315 37699 45137 56143 68047 80270 87865 95173 67567 27809 61580 62513 71641 82057 68513 2945 2817 37921 97729 1041 38402 73865 21799 54259 86147 98735 59223 40513 2367 80241 52717 26338 79795 333 26329 98297 18124 26237 23809 82801 58849 28613 54193 85903 88569 87272 83881 13508 43921 72158 73368 19169 58674 30329 26991 14416 95059 83965 61865 94567 68355 67091 26075 73374 6940 55553 58554 1705 91985 18589 15426 12976 41471 91490 81481 46833 49189 70165 32463 47937 62575 29308 83171 18378 34338 30457 86993 53158 83368 13747 39317 94817 64747 83404 70865 76394 77665 23773 65569 58069 87901 28573 25467 33107 13889 20601 33068 39489 12867 28529 4369 16385 94666 32845 30618 74561 6553 96590 73313 93533 34575 91285 10638 67857 60643 41844 71220 82050 84969 28932 55299 65724 88723 62082 92193 20222 47199 50827 19193 2829 4229 14952 98648 59325 71873 8381 21943 33951 81695 96901 7664 91877 20157 42727 70276 39519 62817 81487 2713 99397 37315 2832 44035 38540 33537 22813 69971 54071 64701 90249 44999 38141 89875 6625 67445 56917 35289 70597 46425 85586 17271 24094 18305 15999 65647 75654 15029 19804 81269 38239 62695 37607 67130 96691 58299 78093 92475 15313 32917 18517 10233 76481 47141 2498 51925 56877 47801 47002 60805 74485 64561 99333 70468 11863 66283 7160 60419 12129 79406 77205 30127 86183 92699 90229 62157 6890 51538 17185 345 54607 97911 9547 15020 77092 69947 28297 43289 46653 56735 33516 42360 95107 75953 49316 90981 43378 52599 97599 93361 92143 66977 78751 59525 5089 76657 87329 65517 3897 90473 45487 66473 53441 41578 15533 58881 50884 30865 52215 86463 34525 43975 5210 76923 10829 93133 86393 13159 80285 18182 50181 6625 25137 32457 46546 96213 43843 94017 89637 51929 49594 26203 15526 30282 65453 57197 42226 48577 86466 42199 14018 45161 80119 22380 27604 19841 37901 30791 60381 26449 40589 51997 94961 90873 47527 83837 39513 84807 46183 59837 97885 21476 30049 60605 140 5985 94441 80137 50641 82481 21247 12117 31130 67283 11771 60763 2867 60105 70023 85700 64673 764 48327 14789 80605 52475 42289 27788 12676 91805 85897 20416 33197 69907 28009 6456 44700 25978 54643 65801 78178 76049 67045 12883 99745 41935 54907 47831 46273 62724 7110 38566 56583 98720 30357 34600 76703 44753 94791 67205 10137 11418 5729 37585 32789 9443 62649 10792 89425 83413 56529 24777 17617 98114 631 24620 14959 77665 38453 47936 85880 79221 34065 28832 95917 61869 74693 60596 51564 27555 78625 73637 50477 67614 70439 17257 1520 33764 65845 39624 37601 21616 42109 53921 14830 1761 76213 97776 60338 43911 85587 86063 39398 30517 88685 11605 44301 4181 48099 80267 72973 59517 68903 60049 24428 20041 18345 51089 92304 71613 42109 41073 53681 98689 77536 53953 92525 5661 88018 44739 51124 15737 79528 42429 57156 22036 35474 9553 38639 72145 35283 35361 54542 21165 40922 76163 73897 89025 11093 71755 30365 59881 22832 31321 31531 15881 18269 52853 8289 28833 3199 80517 76305 53863 14389 60490 90331 41505 57451 65559 17350 51435 28359 60020 19659 41613 35297 38395 27017 72783 18788 94737 43381 67817 22420 41230 42460 72441 32153 33653 20730 42149 13835 433 4177 13294 63683 98903 30891 79337 233 99817 33558 52087 57597 65545 27993 98615 79099 2239 4791 45542 75377 56289 43189 33335 67681 59152 42717 54207 25513 26599 57347 18511 47933 7293 15985 39613 35959 98873 7672 41109 84753 52457 68343 66473 95659 14345 70858 89712 72551 55975 1733 63221 31903 40092 55481 23732 38598 54863 11479 20561 71958 55052 37485 63029 92378 42389 35163 52899 36121 8801 75353 36537 55337 5173 93711 24053 69561 35849 95303 56233 6689 51687 2791 47849 83336 77482 43736 33035 12033 22545 37897 45076 47065 72117 67643 4111 77295 29862 81249 39748 36650 21904 3916 69885 76716 89026 79481 68641 39197 60313 51513 57405 41344 81337 84087 93863 3553 33741 37594 43973 60929 27953 85018 44231 18258 32705 93638 14396 73209 93785 81607 83685 80049 67505 43242 47863 48951 6809 23329 75515 42984 90877 16135 148 48363 330 2060 8001 10013 78977 88351 6679 78459 25817 88665 36310 36728 93439 15761 96708 43505 83269 47043 68427 97280 65918 51006 16417 53777 35722 68769 33266 1530 25109 73201 6560 15713 16903 46872 17233 44529 41715 16993 42585 61457 51493 34779 53466 43635 98725 38413 92917 51677 37318 89405 98805 74646 10474 25899 19197 81538 73542 25422 139 89999 82107 1397 5904 82365 69850 41961 71893 96577 25965 61881 99987 4761 54437 11280 55281 14689 24551 45190 57601 42257 97991 23402 21313 25729 8065 60638 19669 66833 84022 50760 32667 8206 65029 80109 5518 73020 27817 19825 3701 19105 67817 49662 97265 41825 34946 37965 22599 99771 71581 99479 87935 53803 12353 78152 18405 16013 68529 21917 55337 77145 86541 43625 81007 69109 27975 28603 86785 97152 91265 30081 12571 76407 95169 22802 8585 87168 29422 52841 70252 54582 14801 61453 57574 10001 76263 62245 22549 72228 59525 22099 10492 80371 18231 67192 58449 67289 75139 92057 93737 83486 95139 36745 73857 85453 93095 15539 17005 35651 47562 46279 95557 92786 12999 13218 60473 39559 26931 30885 94921 14317 45029 16377 5845 6297 49409 29574 22017 44029 79855 51735 60785 71714 67135 61619 56705 39137 33077 34369 48491 14889 54731 78308 63170 57667 90721 67602 45433 82603 93945 49729 82505 45375 14963 45061 40151 77334 87521 91821 91137 77765 50235 93825 53503 3805 70253 68245 22829 8641 63578 9715 82162 83803 86577 21912 24850 2719 13073 48245 3557 70389 62102 90095 46853 97607 96143 65723 26597 39784 35315 46294 50491 69933 47825 28517 3427 5641 11004 7595 68401 41632 65403 29737 22005 22929 70917 56937 56121 62933 64523 61633 83814 27353 75880 84257 99482 45885 77953 81907 21243 23746 44495 49740 32277 87373 85521 49095 87511 18754 40429 85764 77159 83217 60425 72509 41067 7151 38294 65762 89451 93221 12374 67429 54029 87389 51799 61809 59513 59438 72241 91829 10379 15408 56119 48122 41189 38805 70669 82097 51975 71998 88221 89053 11641 31421 63333 66537 30895 45017 23689 92105 99585 40747 44956 57450 41418 11473 56747 17339 42769 26014 64064 37859 21813 66138 80495 44169 17092 42639 73541 92766 50301 57089 5233 72641 43053 65073 32600 72292 80114 28895 82917 78756 79992 30581 20621 87833 10109 21713 78259 61629 33989 95977 36929 53805 19213 31017 76794 18961 44985 63505 28368 24715 10671 30681 19785 98931 66769 97981 60155 57245 83243 1421 3397 42121 61982 31 91517 53073 49701 89719 27321 32469 87752 43705 12672 2810 43568 54219 39926 36721 45590 45793 5186 491 50557 58773 90487 43587 97090 88858 67985 74697 10690 56161 54077 12194 31299 6702 38937 84625 91510 7771 38451 81825 47461 94840 94950 5680 97237 69363 80273 84160 32935 23353 89725 9299 62056 72720 90057 9768 24677 21425 7787 84993 96043 89593 42692 88522 80783 42108 1741 6284 45767 92250 8431 95765 50769 70725 98699 32019 2860 9607 56076 69189 46657 73499 34287 9365 23641 71937 70539 98816 54457 53033 76998 58289 64877 38813 48589 39113 41461 71833 97079 53559 17497 57548 90045 31757 1324 23408 80381 64153 78285 61391 53136 73841 24053 10153 77605 23607 25485 82293 65708 14857 96237 39665 88406 65954 49245 79997 1593 32538 17001 79025 46354 53706 32097 20559 35329 52392 37373 2795 4129 9137 87287 8324 31903 58979 13605 68632 68391 74379 84898 66409 66097 46722 78835 86273 16006 54946 7957 36831 55271 82421 94369 46611 28753 32266 27766 41874 14027 34296 44429 90385 88769 22237 87451 73361 33357 13057 30217 47723 52047 39623 26012 21417 57076 16093 68690 94005 67328 4697 3162 5735 91308 79174 2637 38352 33759 44437 85861 41645 86612 73401 73661 62809 53161 24175 80917 25199 43265 78259 29051 25316 40617 64625 9341 72748 52696 91897 50351 31585 95715 325 14017 94954 23543 23489 79701 1875 71285 81839 2689 89225 58919 5413 62465 40629 39753 36652 6204 15201 80596 69985 33452 71535 62094 8372 79546 367 21150 16634 85993 82234 14068 14495 13282 29201 90193 7080 30846 22483 89417 9475 97995 40526 99825 50573 60387 39350 19371 41255 36752 74549 94617 65837 10457 63965 93801 76857 14674 18961 39745 15929 65807 75977 47168 12483 60322 77126 62773 84316 28636 26845 96453 77460 82 71018 47087 12026 43238 51651 79087 72481 81041 31673 27979 36729 88975 67070 87653 85317 657 25063 82475 42591 66669 52731 62061 1537 79361 74562 51169 54573 92210 365 20355 94704 54053 33531 76168 61799 8909 8000 69811 29585 53557 48609 25001 42589 93309 37322 27741 77273 19089 68461 7235 97064 86517 37059 81601 53169 26505 89289 84673 22589 44779 47929 47525 49769 75069 54039 30781 37466 55639 59151 97489 12675 30466 75771 90001 88510 83421 20273 77249 99376 90288 59073 74994 47461 77173 78713 42765 9455 75167 54433 15547 89235 85186 61233 60379 18081 47779 13985 30305 74157 76186 97985 93521 76625 26433 44462 39489 51614 43982 11517 3381 77177 13395 60557 1074 46193 96641 28 28257 69974 97396 98109 50753 72401 20784 72977 41998 9401 9273 28129 43189 5523 54605 68249 82807 30549 66961 55489 19417 12353 15687 9069 95781 67457 86769 711 65280 93578 11703 7403 57093 52495 33769 21119 21353 15239 97911 13331 79041 80307 10249 99105 90707 83262 40563 7995 48836 13917 3214 35559 49633 52861 34625 15269 94214 55885 16092 71745 21672 1777 22109 80453 95306 62294 52941 11589 43177 52158 29486 90663 21192 82249 35207 7493 86317 44708 90441 56843 97537 90656 1013 18111 62439 87257 61561 87885 81033 30865 49785 20449 22113 58461 7449 37929 57117 12625 82319 98686 6689 45851 1458 26709 98973 1235 29728 46777 95155 3629 54781 80098 65089 26095 77255 36365 41306 7975 32815 68849 61853 42177 66945 64265 13712 24897 61836 56135 26153 87473 99873 19777 11739 41221 6556 9801 32007 96501 90871 74589 53809 85552 81459 1556 50498 72177 13137 693 61509 95009 71899 3729 10410 90321 89985 67265 38741 45681 37367 42488 14236 34387 45845 91226 63053 98281 1189 35572 63769 939 53575 83433 61925 98361 94133 24281 22561 17834 56257 71838 7953 95637 977 35703 26849 31145 22611 32181 78754 61530 4923 63089 14209 93387 6805 97484 59825 55477 95184 77159 1849 3974 13831 94775 12510 6817 62163 39696 33012 75809 36369 39924 97009 85097 63647 75757 53475 65409 90495 40582 36551 31509 82513 74959 88741 22417 33824 51280 79647 8910 1006 98966 40225 26305 75313 67045 35737 48539 60198 4037 48105 36150 25877 3217 22407 80439 26847 18630 57157 50185 57369 61416 94934 45711 84344 46523 23265 24442 77610 97583 81147 2015 34404 57499 66829 68627 16229 29997 66546 6197 94050 12009 21723 10185 26312 34841 78853 7539 48357 95886 32536 15329 15906 30803 41353 70825 92497 43923 663 36819 76133 13309 13463 91253 45665 50689 59553 43489 59053 6677 37278 71887 82169 6574 37838 95359 86905 47317 33709 2448 63354 44033 7209 43637 87037 1545 93031 2203 45079 86861 30792 16821 42214 15297 65466 83109 46677 90049 44045 89342 67383 93305 7357 55753 89609 52815 78126 52622 49593 67481 84281 48629 68217 69155 42553 78634 50048 30575 75895 97749 82375 24497 72949 91005 77571 20418 64516 70486 96399 91665 15994 71855 71064 86321 24558 98497 72932 61111 94146 71165 65233 29057 40097 47667 56206 23698 71865 59897 43309 55308 45161 39521 10881 10076 70445 17080 56274 22095 11579 42969 53261 12257 58029 51671 41283 10151 53179 88284 10593 26485 10286 28241 81715 34073 60317 115 74101 55597 26089 65760 34404 36281 47172 54111 79529 46314 476 45032 37294 77665 17537 90944 88378 27857 96389 37177 91614 43593 80689 14843 65410 92257 76949 50435 79917 97480 85701 18749 78183 32184 38836 17412 84249 78649 53330 58089 94149 66003 61985 55087 23177 94285 8945 43715 54361 14199 14271 5180 29427 84542 11081 82414 19647 42233 53534 86365 84311 64643 59343 43971 48009 519 26608 54681 77031 66369 28798 62715 99731 22187 52647 90577 38189 3113 18337 90046 91772 50587 29033 98101 7937 37419 60913 39748 82917 23261 36787 96749 30061 95440 84279 40490 94061 73845 96798 8319 33709 5164 90111 16780 77062 3836 83179 43837 30096 85464 56331 16309 91175 14179 75108 29227 65713 98011 88522 26690 88735 64041 99739 15641 47313 67709 17826 15346 921 73203 67621 65889 56503 95513 77099 54657 55204 5619 10337 21182 63509 44257 40113 81740 11543 6665 26485 19029 55984 15750 47948 11995 94680 46232 53473 92100 66516 62842 47626 80637 25677 40279 55067 52532 88279 68530 94925 72997 96166 76167 62307 24021 11869 68485 5367 80929 14267 66673 72785 83339 50067 18702 25070 98285 14109 49433 38553 51849 24246 8189 69445 5863 30807 65817 23937 81250 30529 28853 59489 8889 85 36769 96663 70567 80941 90879 29133 86881 495 20437 97684 19537 95566 51865 83841 58865 11061 94089 4662 21201 48483 78825 87688 82855 70457 94513 10145 84214 63827 64187 65613 65893 81429 31565 40273 48105 26761 4121 4471 37761 51639 25451 75941 15473 13169 97033 25175 28496 94641 41613 45793 81697 58459 75031 24993 4645 335 87073 87647 80685 51992 77949 66475 90783 86945 77783 31899 79833 52724 13287 95274 39344 30396 86033 38931 72023 70335 76112 78041 83571 12660 53895 44933 47413 59110 71811 77273 37605 17793 42621 59289 777 45117 98222 93809 24385 34961 63301 52431 16355 45345 45293 80894 27949 80821 17153 88341 55321 98037 98612 12105 17897 59794 38109 60916 98265 64539 83377 20227 76836 34616 13323 73285 7321 78942 39909 26289 14728 14598 57830 70214 60049 36311 72337 4749 81137 40209 31894 88767 22952 32903 96033 16285 66589 7345 76584 25338 45126 34031 65105 15532 64181 39181 90304 52707 47023 65251 29121 25474 89661 22765 11943 26841 70285 37075 49573 83206 49273 98439 50305 89169 56385 78789 50417 31287 54870 63709 13851 35889 11621 14589 60747 54081 43933 13621 33417 78184 6249 79842 60010 40182 73041 65739 73464 39017 14948 68359 57633 63975 60499 74889 54274 98195 12345 37594 47369 9396 87361 2199 93195 10881 32015 76273 97969 96889 61769 54141 51645 54040 85911 72244 93537 44053 45791 59685 63026 61369 75841 24289 29238 1996 54481 11874 417 72233 61933 78857 13639 35327 47530 21105 89930 56257 45385 44627 5853 81283 23936 26365 76324 76429 11057 52583 74105 57793 98416 47071 19553 30191 4059 52538 62225 83381 98127 19843 7730 78330 62352 68141 28141 76485 71589 62347 93633 25720 20400 2757 77458 18807 73213 24597 57402 74238 32815 81959 91853 15745 41525 64112 68607 79518 83124 53966 99805 58012 14773 49321 81137 40970 24421 72345 64007 7143 47853 99733 69018 9905 96677 42165 43219 94544 39805 81411 63309 16747 21512 22633 53552 70543 72613 52261 42689 82257 39489 65734 60565 98201 18045 46375 65521 39850 85091 65684 71171 16926 51289 61085 6659 40745 56818 33524 5411 76538 2521 45578 70492 31313 30634 43707 35320 54712 39637 60936 23681 97537 11041 62683 65227 15551 90918 72089 61093 64385 15564 4399 34478 99182 95609 78703 12784 61125 44689 81205 16661 6532 32977 1825 83949 82329 56101 72333 76669 80349 10744 93146 80808 12032 772 15713 7729 15398 75082 52003 97699 6123 5217 7119 49294 49885 50361 40604 87657 40129 74241 99129 56369 52558 2537 57179 59395 9942 88047 50903 70968 56217 57297 91265 89964 12703 43562 87271 75600 32524 37487 9950 52609 54595 54561 90812 26821 76157 47865 48505 38333 10491 66720 33977 4295 69908 7159 49457 8797 34947 95821 13949 79637 42973 48769 49949 36293 88112 59769 83308 32713 76405 81889 2975 66117 19673 84784 53622 42216 90460 55845 17273 29481 1537 90303 44821 23798 30001 33725 30027 8469 46087 85536 45465 93585 61771 75882 42460 77571 24443 41447 37368 81873 40759 83787 91609 29743 8691 82209 51009 19617 34499 67993 6835 28129 11202 441 7118 63757 74862 12229 9128 56620 52401 46693 72212 38621 2017 60601 67643 48393 23345 1741 73923 88509 46692 24143 21284 32431 24097 99905 79325 2755 5020 96651 84077 70241 45077 39688 23857 34305 67954 45522 55741 74343 45455 39329 75519 73738 25364 83048 52107 75927 29219 19184 34439 99089 79977 23353 36434 74018 47120 61969 93047 77449 63481 19495 98453 26436 35063 99793 5225 6286 98632 77445 7945 87165 56941 2397 19434 92709 55161 16167 9217 23030 95105 65649 88777 19945 5719 86729 25728 89413 69240 95635 18390 85194 42237 38281 6595 6315 12219 57818 83913 94411 58041 47069 41569 7554 1590 82692 10017 61166 11525 19357 86653 15915 14615 99161 42649 23045 85823 96249 97281 7661 56152 90245 39809 58584 36445 34013 64892 54069 16889 31745 57915 24445 17503 62621 72284 87517 24665 82670 41274 98597 38274 39189 80504 48848 39649 47864 62359 32250 24821 94711 54453 96909 39041 54985 40836 73345 82406 55105 42995 72481 54094 19867 54757 41635 96041 59101 80559 710 24175 65311 26377 40018 85258 17285 5001 35094 56521 22839 9629 56271 29752 86443 1101 2581 57482 57897 48647 60961 43857 89875 34001 14426 9839 62448 29445 79553 36463 72194 30127 84135 90320 94531 29037 60601 2827 56697 80609 17143 29508 3549 74358 78401 49507 33914 41847 49710 21409 2067 45156 74910 30823 13082 74702 5569 7393 95849 16004 12543 45725 64201 99993 43185 79337 84945 29127 71444 20956 77035 16968 42045 52961 73634 41487 54911 16941 75163 95549 41229 87617 50733 87392 90068 71472 10441 32328 17512 70779 55768 39758 84337 66397 36690 3617 13841 26081 66907 87419 13037 88613 75980 36385 9631 58301 9241 30050 22623 43133 66389 727 33903 30274 14837 58633 53113 81461 86660 70603 85603 99149 66037 19869 55786 89753 12061 4173 1921 4881 46317 32063 25783 47761 23461 89433 35317 25221 66141 18741 25381 64039 22025 48899 71305 56733 10489 19950 86593 75969 3677 34080 16321 60789 77313 6331 53957 185 9872 21968 29261 80734 84018 30597 62547 47157 5761 17953 435 53936 8575 33075 13807 68194 3521 76257 11056 34472 65183 12588 18805 7527 53186 14857 20817 52312 77130 49119 3319 15473 10048 24009 95273 70309 98855 15665 55580 83947 3683 94549 58281 35307 54414 5630 42569 22401 3093 60801 22073 19411 67745 75539 30325 56945 62643 65315 1403 19193 61893 41180 32409 83116 21153 27697 71763 59313 76758 46293 70045 64154 81765 93065 91693 76437 11629 96034 79380 63257 1756 16716 61646 53645 96721 52596 64961 63409 80897 24931 77245 39641 77539 62951 71419 84097 97072 52693 74119 41485 80068 12959 59793 35451 64085 98236 67733 80947 97587 32677 37374 50171 77515 34491 54961 2701 27345 84739 25733 25513 35759 2590 26190 2282 40417 26291 99210 38814 76077 24921 2860 85527 39696 89421 74495 72589 22422 64428 34502 3377 63830 50057 24074 7207 89177 26868 98294 62497 20625 78983 75985 85293 94896 43268 42215 81691 26461 4189 20741 31349 55464 81633 67707 89001 82516 92863 93569 99574 89075 75146 65483 13911 43022 38288 10857 13961 27313 71467 27687 33477 29057 70148 42353 4236 54120 78794 39757 6853 43943 24808 31819 10918 38855 49021 80064 78156 75592 67713 15826 72909 57305 74727 41281 20911 91602 52053 42699 21350 78505 13449 78873 26289 74136 55909 75145 63657 17641 90533 80162 65254 69475 80753 75169 35607 85825 81612 28643 86725 35255 60823 5372 99332 30597 8543 90681 38453 53714 79649 18029 30081 84264 4207 92877 32001 36457 51893 85993 97481 74111 29225 14697 82506 26138 41583 9585 25427 50717 13114 35850 41133 19581 269 83995 54881 56281 60372 48666 18545 38737 69524 15788 10785 37128 45866 58581 8371 11600 85161 85329 30726 60949 71381 1264 2783 83430 65946 26865 1372 48488 98714 60883 91254 41521 13393 75061 69417 6657 63836 58689 81191 64028 50179 74749 28417 77758 34659 86195 93660 12032 43437 46643 57633 77338 93859 55599 17277 84755 46175 66909 10975 69025 92603 63393 36670 62185 55681 74357 11809 82248 93153 26335 49279 73353 58453 62242 59233 23296 7211 2069 9153 50361 76071 53352 4545 94430 20783 2743 22706 23273 56705 74800 11687 4469 67689 83146 60369 18405 41081 12372 38657 53960 39640 28390 16193 93255 71801 28715 93055 3225 90977 76462 44869 51297 43041 12323 16361 37601 76529 76881 10687 92961 77725 71411 82332 4117 26363 91193 16624 61802 54105 89765 22959 89952 16843 36427 55130 96085 53105 27486 54626 87589 68769 80113 19084 13278 74023 77475 15765 60241 98234 61821 72721 70675 51615 91029 74212 60063 84121 62169 40199 7470 86890 75990 3505 68505 76727 31361 37937 4113 20674 3379 47929 94609 28918 92729 33527 84543 3151 62632 23435 9683 8321 64929 77140 46597 23937 9197 41192 75217 56823 13937 92945 65283 23948 75831 44033 97685 21515 47120 40638 19581 32827 54737 44939 5144 92575 2417 5520 98489 51695 51642 90496 98799 6262 89725 18209 45097 29825 33731 55421 9927 67051 57652 77086 51789 10789 11877 81955 77549 54017 49731 4851 13215 19537 38145 72992 45875 58413 6345 87495 1051 51345 43561 85496 70317 82027 23237 91674 31264 6051 21497 17348 18790 33968 16577 34246 56701 5352 48913 40863 27825 52030 83527 82660 13841 94743 48657 70817 30641 22455 95521 82824 3187 64670 49810 83555 46153 84456 40769 98911 49923 45729 9121 26472 1178 15687 73713 74257 93718 98437 48986 1250 48128 57889 11254 63953 24445 66841 75796 51778 74432 38704 42683 83561 4191 5029 32390 79241 39245 24951 4149 16629 45499 7153 88882 88697 37053 3392 85618 59269 37075 87369 81965 34708 49120 27423 90723 42701 89103 92386 92105 4271 72897 23023 44493 64229 10679 30048 19470 28897 22519 53133 39914 62238 67225 86805 83373 44547 83226 37961 84509 57840 42436 51351 66504 29069 65855 82949 6073 67505 57515 17489 43108 90217 25634 21503 31201 2281 57537 24123 37721 97584 24881 32321 89412 52667 78209 15351 87083 26153 53805 82265 95925 59879 43171 5477 39349 20284 21770 38129 17759 19609 36441 46922 17827 36293 81177 70765 79593 76955 34607 33371 3065 46537 58067 82801 44941 45310 46689 60071 648 14943 54496 25542 19803 57868 89780 72297 3826 61637 18740 65151 11613 69167 40697 52024 15109 57153 41298 39925 61737 99907 34699 15076 62314 36033 44876 35798 10049 16209 39969 82054 48201 84363 21317 70291 77987 56209 72455 23767 87977 50737 63084 60041 88161 43085 99113 42689 28581 95201 67831 71153 18509 23457 52893 91137 36461 66123 35385 95615 91489 5077 85135 67794 64418 39755 42068 3925 8027 75241 22110 62489 13240 54642 4930 77049 34022 94304 99777 77809 64055 57018 19423 41969 7313 1599 22053 55317 15084 6911 99867 18909 92667 36577 7117 75463 85485 79065 43866 93793 59549 1045 63456 77252 37291 53733 49752 21904 12952 3176 7865 35072 5253 57304 8785 3491 47833 35445 30661 91729 23925 74705 66884 70037 93045 15 86071 23425 66887 72077 20321 43107 99779 85260 23777 31937 78334 89309 13508 4155 70934 87619 97302 52474 68959 85598 16687 52624 71161 79795 17899 60178 96618 4175 69713 9435 37025 38039 51103 53512 72655 79966 94659 44811 73361 16203 75199 45717 90607 31393 56655 65296 193 36888 21477 29097 43381 44265 14093 37921 95905 80682 34465 84786 547 51912 4853 43601 76395 7439 57393 2371 90493 95743 61929 92719 81880 88153 34373 1925 91071 42857 17459 33461 46481 95208 93555 47113 20774 88670 2471 95085 87991 37129 8076 18589 54271 40833 88901 79639 25215 85605 11096 49900 39287 5201 24240 65531 86977 23513 67557 19229 293 11435 41585 53658 20365 23939 8649 60727 17149 50675 4907 14641 42368 33133 79849 7489 895 95159 63691 55830 48757 57833 19673 23479 48251 21470 27809 8961 64333 19253 13297 35173 6544 55688 85709 11713 93521 89899 17833 23048 35337 32478 33779 69549 32845 45169 38569 31565 99591 64377 99641 44881 86923 43385 72246 88281 80881 68067 5297 31297 7478 14721 57915 99841 76993 61476 70376 91336 47286 10157 88570 50809 7559 24071 89849 62269 68601 11399 91124 93844 97805 82489 34833 5091 20320 36479 83437 96677 70793 88161 2073 9865 13651 75678 91649 29905 8941 84425 6747 96493 14031 56926 29617 58887 25105 39081 49829 73515 60585 78413 9891 81701 18956 25080 39563 6165 51313 8134 49781 60485 17238 41297 57525 5045 55010 8932 17081 79269 96036 57767 10838 78505 11217 59162 91767 44161 70615 34659 967 52529 7369 95935 58921 8547 70725 40233 74183 78369 50050 2951 53537 96470 30552 41743 10213 59255 61129 77057 67656 67867 5975 11601 61250 18495 77513 35933 36417 65205 67872 91701 29984 52400 12006 94963 14285 58845 84037 92289 12753 80715 65793 89201 14573 32997 61677 89019 90241 87953 41201 72677 19307 12451 81017 72739 35006 57899 36524 39945 91425 63789 6787 27761 75425 43825 16449 41513 62209 7908 39938 91313 27561 41761 44606 96903 86753 67297 51533 46781 43786 66441 12424 78529 77933 28978 33755 50401 69921 92449 19225 39105 45836 23280 47407 35317 90777 30335 6559 3080 70113 97631 10497 97394 23741 8947 76911 47700 14357 66064 36448 89829 62057 13790 92555 81857 33501 71083 65740 53673 87217 55129 41450 21111 72240 17961 16787 16452 83772 82743 5404 30217 91041 64109 98751 53857 58413 74989 65879 2425 57405 83883 67003 12584 44033 20445 64507 85911 68461 93203 3288 95395 944 27424 99499 12449 1907 66363 12097 87356 97425 43521 40125 64168 29859 65074 42004 79337 68346 79052 53070 59465 20761 69571 77748 37313 90519 793 91605 40421 3773 54761 91157 30275 99469 63041 41457 51360 58601 42681 21381 31785 14721 86068 28314 93313 85009 53693 61633 40147 59002 60825 25302 53800 58658 5683 75675 93850 27810 19840 60427 68118 20681 2791 90337 81810 18485 43342 32801 51183 99617 77557 67215 72576 99944 7049 59169 69639 46817 25828 5829 87937 60608 276 85285 38905 82584 42549 31624 10354 62943 23371 85065 5679 95522 58498 86033 37925 76389 70785 81335 29697 52907 53756 63309 5129 81373 97385 55119 59837 66969 72081 70177 12270 33635 1536 99515 43587 13141 26377 67121 94045 91477 92534 63281 71437 4961 25771 96879 7797 74745 34420 23635 70551 55235 41570 21739 22241 36297 20795 25351 29325 34075 19033 19075 66205 54925 50897 95489 40551 47291 33313 42335 62155 57215 15505 3427 44193 71001 14628 44175 99313 20813 92783 40737 52526 51297 28909 14263 1973 2053 22401 33028 41236 56281 79209 82743 13248 17880 39864 67297 76449 82765 1121 64397 83629 83421 54073 17005 26412 64449 10187 467 71023 34721 84465 73230 429 29286 35879 59489 78268 71481 52609 3524 43105 92834 32366 39037 76453 85366 29227 44449 76261 3809 36353 73738 38061 10437 14001 85377 18745 16813 11558 11735 74132 64188 74920 81812 24081 3688 55303 64273 80285 23485 93371 85793 2103 84708 35897 8418 21856 90753 16247 9179 39302 71455 47473 87405 64477 88691 2361 37569 49114 88157 60182 53441 23781 76631 9985 50061 63013 66897 56667 58961 37105 71217 57159 26405 32136 37619 92389 29392 35557 51380 43853 52967 46001 31578 62921 28009 602 57906 89315 78765 40490 20073 74947 61117 61128 87613 90025 17769 78353 13062 2129 59423 92017 77739 4040 42823 41387 65551 32261 88877 81333 26505 13491 1399 76465 16226 49825 22598 67345 62738 53301 30813 97576 77233 33179 48445 48636 85697 42469 60902 8811 4823 8865 71857 90491 54879 8440 33625 58073 23033 22104 75477 72413 2676 86731 25886 3373 31487 58952 16131 77715 52185 14126 13967 4801 65703 5992 86441 51926 69845 5143 20188 35907 79750 67041 17747 49599 81365 1705 69295 24165 44365 66696 49632 15089 66077 83121 18383 83745 65138 34905 90044 54990 90033 89557 37627 89916 50636 19489 3926 96409 92737 90017 84073 57159 95775 92865 18963 72444 67097 50687 35067 78619 61728 84239 94625 97498 96015 42303 58145 3205 12145 8769 58145 45285 61153 74425 97351 26301 17862 21216 1359 95575 65394 88071 12823 96493 54081 71619 90259 32975 37545 13453 1936 45457 63433 11651 55751 54701 52264 52443 13133 44380 83849 90337 51439 79097 39736 9657 88487 84309 4209 20754 92830 82083 25764 49539 76265 49041 2074 44057 45544 93998 36909 42762 40389 34418 23871 35549 60738 9221 91501 79542 97353 22345 80501 76167 38673 40505 79143 75923 43610 69529 51353 94626 55777 3453 93619 20109 42626 34673 33281 17130 25025 59523 6845 66841 50969 37048 82659 85417 4552 98573 64729 96169 38037 37665 2695 18555 37563 99791 71093 40337 63822 20417 4801 95281 52201 20812 44529 69683 58587 68645 52447 26763 79953 42095 9937 10259 29713 36516 96 99521 7144 35089 34529 82595 82457 95435 75017 86533 68267 65789 79051 82805 52037 77436 59025 78911 59694 55993 30522 83505 92939 54683 81377 86765 37295 13877 2716 73590 66821 87959 40641 51508 4394 887 9959 54489 11897 58443 72961 16001 88809 31384 17857 15985 25505 82625 83546 55191 32847 95186 79204 49281 50194 91169 81489 17583 80483 40378 76351 72067 66021 76143 76690 36732 48462 48865 71769 95137 20038 43388 12527 63615 79091 55089 43713 20102 85681 45307 27591 36017 30183 80881 64545 88245 80460 43586 34979 57561 21268 9264 74431 87881 7749 15541 48777 79053 88740 68713 18070 48409 44457 82540 97574 10506 51447 51004 5521 72305 10949 88305 27740 5665 12873 1077 29025 141 37565 1281 79234 10655 62897 95937 75165 88729 99603 71458 52273 58634 94928 72237 41988 67089 49811 62812 82052 32429 98657 74065 89249 77745 56617 14257 84039 64096 53623 91931 37425 24209 8853 71713 15699 34261 65509 25335 51003 21273 7453 2339 94506 96101 69599 36933 94369 5154 385 34272 1798 9153 58049 37041 29029 99459 82049 35915 9147 96279 68275 19259 70734 29249 67723 12970 19297 25337 41679 84475 16289 5084 65121 35499 34287 35779 25139 85977 95469 98365 14849 69649 3671 34499 53383 34969 16431 36302 93136 71278 56991 73423 18743 50765 37661 8974 42297 57776 80761 36457 60225 35249 62397 84889 19521 38303 75472 3765 19629 64801 4275 6254 9731 36248 5161 61277 45170 76675 30107 76683 95303 91523 61021 35449 96455 17425 71997 24423 71175 18323 11408 6054 44390 34136 57577 53339 14415 58946 94553 48143 34903 20957 53725 60203 577 55288 89941 18510 39969 64025 62183 17772 10330 89137 10948 73201 68762 56987 91366 36717 33819 24775 92836 27996 17090 79917 76847 71939 78977 64282 3167 21737 7057 95317 44244 4371 85981 34757 77601 75829 80014 9301 91946 57276 53085 54535 4605 74731 85843 4505 87169 24995 72083 83325 5573 78337 25751 88693 18784 99707 56905 98327 25119 2271 89861 36323 33633 36531 18753 90447 81683 72135 22165 4547 51869 18669 78389 94585 89004 90685 24961 11567 85921 92897 90679 95753 68956 30382 65517 7583 64767 48099 54917 38957 59742 5483 15482 46145 92911 86737 78139 99629 33838 53729 77505 3345 71279 28171 31126 72135 98545 62665 90325 44751 32678 5388 23457 72993 39781 22717 46721 21056 68202 13803 61447 74428 30599 89099 43969 93770 37255 94913 16191 36757 11868 3905 68331 7 73525 27166 73253 14443 99828 91719 79361 2809 63585 8193 49529 75080 94226 2459 99034 99145 64721 19796 94779 46017 53018 78126 17162 12273 66080 83545 95266 7545 1756 17140 58389 45221 6225 80850 60279 20989 1101 12870 78351 44665 24328 64984 42819 663 8616 55018 97645 52237 4650 28029 93327 46297 90241 19137 19709 70337 28125 17102 25116 27909 12864 28071 19493 77029 28196 60997 55177 64033 7157 67666 56898 88483 44181 47389 55823 74980 16017 37849 4417 69742 55616 18623 56883 25795 26513 165 55655 17780 82725 34530 77927 78291 42956 63059 60908 42400 34607 7325 70193 5161 46253 97446 9369 70674 48059 35591 61870 73483 401 36613 1387 20238 79359 30861 93871 53303 857 32513 33296 20741 47322 66401 52439 12689 3365 67469 17833 45487 39281 18077 62161 65773 79021 84501 57529 41753 66993 50293 6195 83022 63023 15773 10235 72667 78148 1681 35354 77201 80473 99801 89559 92167 80633 7264 24069 13281 86769 5527 13933 75016 36559 22889 49037 61313 21045 26954 11937 98635 74273 24165 33621 13640 83999 17082 14945 95197 47883 20569 51492 41314 39212 93898 40489 37365 49780 3041 41817 68657 68367 99345 27090 64977 14636 50032 35873 94316 99712 54439 71323 13115 53882 71541 4715 11747 64065 35277 10148 53923 26673 94477 62449 4439 33889 71593 19060 65661 31623 40756 64257 57813 14897 21464 21643 48807 38615 2293 65946 85705 35625 15121 19257 17199 64241 39437 99466 13589 72945 69880 23617 39713 7228 59701 22753 88743 19393 76199 3367 43511 27505 56770 96168 54528 98405 43609 45543 72357 74674 28061 80411 88443 24838 78881 9333 11007 71009 12631 25659 60273 7585 93747 51217 19815 58091 75105 89761 31538 35562 15813 30959 24155 48102 99031 7089 40681 10832 67285 28561 87996 88038 39369 75162 12737 52689 31377 55089 73681 87320 48693 21153 67325 41334 14537 2518 50785 12179 61537 71485 31336 20057 89669 95242 59377 35077 21775 13885 63133 71772 51912 62857 21876 75349 66367 53241 77136 25773 73253 41787 52181 61777 81497 28321 53081 50357 41449 54983 44945 98923 83709 25843 53646 26049 52351 40641 52193 47609 14945 5721 34896 13793 41977 53661 98937 91291 79592 50709 6369 29401 18509 67321 45395 15147 98880 89719 26589 88879 49323 83 16159 55449 8478 37625 81873 80159 85541 66432 37117 15746 60601 42433 11166 83997 51027 8725 74953 65317 97509 45207 27023 7591 85049 74621 94011 27664 70135 5461 2642 26091 24140 17345 31019 58768 20081 43577 88233 4513 94051 18847 13025 91715 9739 89617 79961 34539 58108 43314 69681 76736 39783 35121 35789 56349 47501 38618 96401 32313 39321 64305 19274 29409 40921 92436 72447 61344 62985 77537 8518 2648 92208 96155 95019 93353 45623 50265 47439 72957 38062 69610 31133 76724 37377 68316 31524 62276 46461 38834 95913 72423 50485 63709 14061 69637 1742 20283 54947 27973 84217 19925 47863 77305 23844 25188 82765 7401 97 7768 10854 13694 70459 41293 91863 35851 36753 45669 10477 26075 22455 2937 51571 72977 82533 73428 1578 20575 68593 43540 43825 64176 69893 98737 18715 51115 44656 98418 50653 55241 90628 69789 91105 86178 34697 68953 7121 21817 84753 90426 17979 34909 81752 83136 69930 88605 2 11553 44099 40164 40819 48592 2511 86063 26153 87461 61873 77437 5436 47305 38651 36485 80321 17957 44169 5581 1040 35197 25469 46057 58147 43929 46442 52572 80265 9957 85793 56349 84191 3001 96623 58152 91177 53425 76725 55097 68398 47327 91069 58115 3356 82632 97673 97755 87655 11261 79809 95933 83465 54491 70780 72212 45641 69072 35760 32654 6569 61555 30949 79340 52171 34675 27309 93325 48593 95487 15494 87617 3009 71227 19734 66114 20243 99216 95613 37176 39629 33177 26133 68092 28089 2137 88204 90545 35803 35481 25130 57225 70782 20177 81925 31743 19491 66237 8055 57066 34073 30030 19075 89673 99912 10881 45590 60473 14983 22989 23443 13353 55749 80899 71670 2187 75395 38813 27077 52789 54913 88112 4563 23249 61007 44692 40283 54790 9295 57145 2591 70953 11369 12855 59775 49027 9181 16858 13359 27705 11900 78649 11052 90709 61417 38844 61754 41389 7365 30251 50810 53724 61163 80869 26692 96914 31961 91597 86605 56447 3153 78401 94209 36759 73257 45889 89097 68019 51332 91911 75057 9137 62427 90763 45161 24761 84417 1177 69793 72997 88161 31081 86773 72105 99628 73197 68898 4687 85591 34399 2455 49818 69391 15665 4641 4010 32927 20226 34345 67270 52652 80777 99645 23636 85546 27697 30669 405 28377 46002 91993 33053 29673 7997 69557 97594 85 61796 26299 49025 61676 83312 59956 68117 12231 13073 40082 45257 77478 51393 38961 80973 26491 31585 91061 64955 64346 68547 93507 54857 53761 56075 47909 68483 82638 91438 26841 39677 31171 76313 4385 60441 70873 4343 88161 96913 3159 34907 71467 55200 23087 79903 72065 56369 75505 50657 81757 80711 23743 52585 44363 84033 5145 49153 54941 6544 93497 33407 78067 75573 70041 91793 85165 69220 59433 54253 30124 44049 38584 2151 80553 44759 98975 37885 43376 25889 58934 68806 19745 99136 17847 97483 21603 73652 88287 11751 85509 76728 96721 88577 36385 19147 68186 53755 56262 58554 84733 55053 48665 12085 21101 96953 61233 18230 20511 50886 29193 78858 80163 65089 89513 3991 5615 83656 19975 37803 91740 79054 62735 64673 32385 52131 64317 17313 77641 22136 16289 19633 98413 77483 78148 94121 65113 43105 52242 38189 38487 34461 5899 27830 28549 16759 19467 12161 45307 12439 65057 7687 10860 5270 69495 52259 1078 51189 90800 34516 98981 3263 3907 70351 21120 29697 11097 17131 82672 49746 78159 48461 75666 50949 14247 40941 77449 95558 70145 60712 79565 30431 27457 21333 89582 56883 61293 57451 26300 38246 1841 31754 43726 92993 36545 75969 72511 21753 73312 72030 40985 18590 60993 80457 57486 86969 19973 90577 98141 83969 18097 23295 60909 75649 42317 90773 31500 9173 22199 84850 4793 74789 27553 34465 47329 33105 1117 51848 36023 61692 78314 90975 27221 45153 85993 55457 20225 1329 26881 49206 90680 57566 65877 34042 58867 81643 55307 95585 82047 92273 14919 76267 91203 23281 23638 73701 88061 34127 36330 34009 98850 23577 66033 7315 47015 16333 63441 25265 25229 23345 42647 63249 67759 76992 17434 999 87769 8077 53281 59309 3266 45261 44669 80217 16777 63457 99977 78889 88785 88177 44737 9099 66401 91252 34129 88435 10405 11049 915 1367 54813 60685 52057 25637 5901 13281 83349 93469 55471 22673 97605 78785 58745 98463 83865 92233 80335 14925 99777 49997 71265 98825 60508 28549 71653 1493 94847 9325 13575 42305 18530 25354 67181 38609 24561 16161 55673 14793 22221 2748 65399 74727 96497 66567 82968 91041 4685 73131 80040 16241 69889 41997 83509 20545 34789 28929 41681 19173 44609 44553 39804 35097 48073 56746 81581 99135 2173 20359 82393 2534 18951 67665 59619 10833 35675 95451 54943 9681 99625 20825 20551 48595 9219 50805 82715 18893 1601 88737 83100 45104 51190 72430 34579 92409 1567 21654 139 9893 30567 8591 57653 9531 18662 76737 32403 53336 69161 39795 79969 62983 89797 18668 13289 67273 2869 51000 49361 70315 94352 69036 34375 593 60963 36929 61927 33029 10149 90321 8393 62849 28267 72321 94310 78731 50923 9021 71449 58137 11652 1323 50537 48127 39862 18835 70514 2293 41666 28020 73828 78783 10767 68625 84125 84297 57626 4326 78555 84137 82061 79025 5172 91334 67090 7835 92969 70780 88668 2073 27836 26091 94063 72671 71969 49711 77629 8306 91170 72431 69569 19741 84763 38902 59857 28587 13447 26869 35582 26696 23543 18512 18888 92833 66533 38926 45985 31297 99561 31907 36227 69483 48606 58453 57595 71787 34264 5057 65 31881 12246 67293 80261 28721 93224 89013 30999 59937 94573 49550 82144 79385 23183 3721 64609 31593 98300 61441 28586 4449 56272 52201 79251 41625 18997 90755 87169 70360 51659 88897 83182 6937 86915 48911 17800 20497 36151 80605 89977 49821 47765 29553 33143 13173 20659 8059 31769 73687 55155 9728 96280 12711 89985 50857 45169 45899 16153 81223 61064 957 90729 1285 42212 64353 92187 78809 12461 57285 20849 32753 9587 65800 93577 25529 13813 66587 44214 74885 8349 56461 36521 10100 15245 60583 67953 22265 86713 40793 3721 48075 53781 93142 81225 34858 24758 99677 66456 31873 85070 88659 80529 99191 13697 84413 58031 48945 42699 38183 90251 17873 3157 94285 24001 88441 1070 91029 58756 20445 9025 97569 72489 55393 47850 78767 10321 90129 15945 46903 95109 45565 48697 81465 71592 51270 18449 489 94179 52382 8281 65623 70962 26351 63155 19505 4409 24859 59635 33921 60837 32481 14506 59599 22795 90113 51265 87155 91457 93358 60729 76763 41613 38918 687 71129 36299 43793 19799 73185 53047 64687 18089 71565 71265 73117 7222 19311 10139 92539 81133 90537 46161 56905 57597 16358 61324 93929 49217 29563 92806 58769 16961 97157 957 79978 64889 77043 63805 52745 61993 66357 13961 14761 97511 42857 31289 70705 40381 83513 52135 12657 49505 8073 75141 92897 84783 55507 21025 9162 21539 21611 30831 19193 43713 44211 81631 71617 58901 60897 55795 15591 59834 46890 90725 46801 50421 74323 31873 52025 27679 17513 9633 27189 12161 79544 12138 42579 45757 53606 67471 13791 15361 70763 19313 33683 18991 70455 68955 57993 70084 58493 12749 15878 23067 16713 93585 3593 43892 37520 61669 14001 38201 79861 85008 40617 47514 32426 97649 4769 94924 22193 94731 47224 94289 17217 65093 94563 4334 51839 76381 50399 23825 44198 74725 70184 86643 74033 57099 41440 86943 49034 93358 7065 43585 54089 65964 67949 17043 60845 96249 7697 21457 57717 56353 44133 10400 1891 45953 73427 81681 41431 62127 84301 69273 18113 46236 48201 4977 56449 91493 45025 39457 35460 36655 65111 5766 97614 27137 62634 20570 6081 25193 47084 87063 8529 79369 49346 58553 15975 51634 12465 11388 18383 15913 46552 58697 43481 89617 89749 85483 61447 85067 70274 22113 15795 98876 98635 41293 30614 21867 35682 58219 12217 1557 55229 84277 195 14333 81059 70535 4321 70057 11221 48629 94161 21889 85707 40405 51047 96990 70064 53659 16776 72377 21629 11109 27565 7896 13393 76775 86551 50365 2308 19858 2550 93125 45233 72607 53817 4897 84665 97241 18129 55841 41234 35384 81707 76455 39895 8607 18954 4563 44353 40963 21104 44238 55814 75905 44455 38823 25763 97647 90361 97673 85075 62118 49849 32239 32990 92002 49270 17382 6833 14822 25145 18685 81864 43273 41721 70289 26173 67423 18721 12959 5159 3261 1986 3657 61281 62147 40993 43721 8181 87653 4133 14177 84181 59501 28345 74161 4567 68609 74647 44294 53179 90313 84419 31969 43249 21169 70473 38319 67665 88173 88574 86641 2459 73849 78685 53019 67333 65340 57390 27481 45823 51089 22216 80623 10145 82177 86985 92813 19946 96295 19133 31130 82188 29906 51519 38961 82012 73677 85715 79335 45009 19259 49997 22381 52751 59752 47649 7959 54913 29447 68125 21162 40785 32057 10252 71627 17255 15337 15345 8703 14511 46346 86739 52324 80132 84117 71920 2191 35505 87672 80427 7152 81034 71583 98387 31430 5798 48353 35037 71211 89793 59937 79732 33837 28152 62276 56401 18980 74599 27409 57073 20230 34680 38861 52571 85201 19769 86545 5041 72070 82056 38893 95929 36366 19421 64299 11064 99045 81730 82952 52119 19189 66803 80112 72524 33787 29269 22841 54289 85719 25991 28931 80635 94992 88145 49976 16346 95157 46705 86443 97952 4277 64353 92289 51983 36630 66879 32333 13546 53121 56801 64934 67398 94231 45663 70439 85639 55681 33339 91747 5741 91247 1432 25261 30134 42503 7201 25120 92053 95732 76817 50177 36005 55529 10801 95532 54706 46343 87975 58730 97639 26010 62501 7767 79123 79328 96769 53060 82205 37521 84147 69017 10999 27358 14566 23263 77417 72853 38417 82481 45397 39521 27597 11273 98791 35573 26271 16383 53072 44721 88583 59853 89137 15820 32641 30337 68465 99341 66046 2650 92272 74284 92670 13535 42478 49193 45619 70171 28967 14053 6561 625 21803 97493 49409 26173 26389 60865 38433 20143 81431 6226 6441 57537 20101 35501 36284 65829 1748 7265 22781 43963 30581 37130 52605 71489 62740 90177 435 81997 93553 89061 38611 42353 66211 75209 56685 79579 44502 56785 10281 74976 79744 9176 32758 67715 65975 6075 73051 61169 71062 83421 78849 51531 66513 10053 50781 21057 71361 69245 4083 98567 70733 2546 78391 90361 94846 19041 33976 29794 53987 55629 41617 12065 69503 69841 67562 34813 20884 14113 31926 34579 67857 58295 58337 74868 60169 61003 2155 29209 55985 79809 38202 1134 5625 4321 12125 62151 16593 83935 88759 12847 24933 96179 8935 21830 77039 45683 36841 90691 44091 37027 55539 71351 49337 69828 64954 45713 90189 18877 87329 29557 5131 89099 26947 32833 27883 28609 14001 15705 6529 12880 32417 16426 43533 68983 29121 10159 84905 23292 93661 50225 64991 59413 87009 77954 23123 67709 12097 91893 31658 9049 36631 79465 78969 48435 19349 47941 21601 85523 44129 89157 80861 8061 20142 54275 35529 82594 88971 64009 14585 90265 96559 79817 89845 11981 87239 62805 87451 78811 4153 80295 98959 11501 23154 9331 73084 11944 43609 44287 68151 37377 15755 384 31357 65473 27114 4705 6065 41541 2420 21133 37273 79056 27937 60982 78391 8710 13356 4617 79469 4199 31421 50134 75292 12069 61306 86917 71770 56705 46263 74674 9942 60437 41471 45091 43725 24977 1913 24763 54215 41231 84556 60385 20966 98343 7291 36107 81533 77718 91867 54546 30656 54614 53377 96343 31085 26745 43513 90049 23437 80441 36485 70261 38096 90933 65901 84581 3338 12350 52419 45149 94579 69929 47101 22723 57705 52738 47825 50717 64702 2017 29635 22501 85314 25569 44169 23171 46521 61441 27707 80600 50887 74034 70217 12497 99880 87063 51757 16376 81967 12763 30577 17251 11346 99709 75921 23298 33014 94353 55408 80456 60129 55497 16445 46105 65475 90843 5541 46785 36556 75585 68009 23461 54849 9830 69550 97558 38171 75771 27814 81653 52002 87829 27373 39593 71729 78869 26309 89579 96719 57752 45460 21557 44075 91585 67071 94006 87925 17087 16561 99191 97259 10581 17025 59521 27689 38643 22857 1271 2667 90621 89245 25193 86176 91387 88161 84226 29474 12701 18881 24312 4288 7161 10489 86090 95618 2152 31969 44674 10615 39665 7496 31970 65941 68353 86869 973 44062 41978 13391 43266 33197 81093 3311 16130 10290 1591 47409 77265 38961 9506 73957 45583 61980 36675 2185 83516 52223 43647 66417 90052 96838 53905 93889 14865 26400 33132 18729 95361 13386 10474 34870 94029 86231 61563 29489 48214 5580 44353 51901 97157 80389 45466 54612 62621 22927 35514 41611 98316 70879 73125 70994 67194 99945 4545 65776 79821 54689 92921 94222 69583 33675 56074 71013 55698 91373 94291 14281 27905 18820 21089 5569 24505 37321 74777 57893 21726 44801 68165 38433 3794 85033 34750 96217 15839 64103 90460 83441 80125 42122 98909 59657 85328 99647 43046 48909 46165 5058 87857 46095 61917 63585 66067 63314 90161 83969 52877 23883 68144 80963 21663 67404 92955 24928 92205 72837 33798 44089 52121 31714 46153 10750 12225 89005 16573 57986 677 14637 23754 70697 27791 59149 87127 16897 41497 49017 461 61382 31274 16769 79761 75773 54087 52671 7797 71368 66681 51294 21636 67681 23249 3283 60609 67691 22689 49129 55777 24835 10617 28677 59755 24868 76757 17745 94734 87854 14817 14154 86263 95829 32040 49851 9888 45035 42924 18381 55990 48289 26996 43423 55393 38889 49585 61985 83858 62675 70736 62305 41870 32202 46329 32350 75522 47253 37557 40049 11455 60259 74933 53401 9565 92744 31035 45537 24317 95452 28151 95513 97265 74105 35149 23118 503 56538 87381 97485 80193 93473 48241 16547 87388 74331 62712 10131 82175 82489 72465 66527 33193 50489 76481 94605 43533 66407 43766 90021 5052 42214 69240 5478 87730 65401 21861 94348 5663 96467 46188 8821 76927 8053 4085 54449 96533 90008 287 9674 14343 9017 14513 19755 28985 37646 91389 15521 63482 52823 77017 18471 58085 84709 86807 37988 99121 76213 75045 66657 98739 28447 80701 98289 75441 85245 52712 44821 79337 29353 73045 77545 39065 95159 79663 50495 97595 8496 80527 25041 66497 74170 10109 16176 41553 58110 86812 60501 10980 97903 822 79332 61937 90571 19819 59897 72491 39487 45586 5513 17456 80925 1249 98175 14787 67889 33633 75007 90878 10579 9605 56422 96968 56975 70706 66090 69161 1881 9140 94046 22849 93040 62222 10135 13369 54851 93057 77505 6097 34521 22529 80787 17131 55042 84909 42813 53611 81429 47345 23842 93772 68988 39861 25838 49201 46685 55429 21617 2339 23000 39985 49875 23549 49083 87885 26311 70593 95424 22869 23557 1745 66256 62575 62796 95821 33345 40833 27400 49045 72307 95517 9093 79553 64061 30743 119 8905 58653 69933 68990 11091 80409 62877 5363 37057 30558 68157 84817 19209 42188 90965 33725 51333 79017 31785 76538 20565 66979 66585 18825 1123 68521 64913 68419 84067 10977 79341 34537 61297 94752 77032 99412 21752 88615 59649 69195 52900 77644 88314 61097 83641 40717 69381 87731 13381 90697 25896 89085 61269 50177 74041 94550 16807 58587 70318 33033 7823 67006 17317 37671 39547 78598 10211 41192 7743 47907 80731 213 67608 83782 91697 86697 26317 59104 41323 24171 48861 78380 56082 36105 77552 62053 38126 24169 95527 39531 60649 65729 51733 42003 24009 92757 9804 6513 33753 42881 16309 4565 69149 73917 25916 53121 70270 91739 60858 12933 42487 21975 1140 42517 19569 68177 25135 85889 70989 67193 95769 96409 73870 12717 24981 36915 7309 86610 7281 36483 80243 78544 60204 47827 20280 23690 84186 26683 69823 14481 88031 81176 92305 51617 35809 90540 68253 23718 46466 75866 75014 49061 30097 40314 48565 34949 24217 35952 21157 49075 63368 497 54029 64329 73082 95011 50427 97027 2366 87171 68571 43420 63837 66699 61239 4445 33842 10641 35313 23397 22531 59760 71866 44035 10471 18273 79120 37806 87297 40385 2785 89049 8846 10985 70993 82041 19681 94249 25449 35405 92188 26001 56592 98499 28692 79280 49026 22823 7303 44108 41471 63722 21476 43232 77472 59729 72231 36565 63985 35413 17977 81033 40410 2119 88361 29269 62053 30515 30194 7593 48053 9905 77552 72777 18417 25383 91311 79342 81473 49689 19495 83662 79595 64663 45725 73064 98987 57889 37978 5801 3768 60969 64177 2401 14167 24161 17597 33359 85109 53136 63721 92907 76113 33097 90481 64625 93966 51029 57833 44949 64201 46593 93084 38629 44038 39313 71185 86275 12201 80141 36707 11521 88417 18727 51867 67171 67075 72065 93519 52782 72795 63866 44041 88546 99651 4167 70495 48294 67565 1609 19547 17329 23799 97861 29717 77593 84944 75129 50489 2149 35081 17677 33295 50113 89089 20305 52639 40119 54813 63501 3505 55221 93857 72593 70294 38189 22069 49006 40298 23425 52700 99871 7348 40574 3841 90987 97771 90465 67386 15421 6749 33275 64945 49369 12281 47291 21078 16720 27471 1154 27850 625 64090 74053 76647 47969 82106 90097 93739 58546 5185 55809 9843 90314 51713 46497 34863 55735 22369 67464 23793 36829 12474 27255 60283 69063 66468 66573 70273 77433 24838 27261 79103 48400 55284 64001 31617 4519 23737 90269 95039 32917 3840 63781 72789 73000 85386 40426 66337 86732 59339 68961 38313 67441 15906 89547 59093 51165 6161 47010 43145 16499 32909 6987 231 58732 80665 86417 31233 86458 41321 1937 3777 91353 15951 15770 89729 98633 69748 65739 72289 61909 23953 3731 63817 35526 82678 13009 85553 93978 94791 95965 99912 37798 84293 72149 44997 35691 67826 80133 17501 25117 51757 13465 14131 32649 6323 57249 40927 33497 42957 67828 5021 34671 70127 15146 3261 17336 47361 75341 26218 90243 66269 17505 14491 40596 35995 13513 83571 52085 60621 29090 7985 56268 48975 38768 54256 96112 70923 83632 46071 6537 22555 49607 20769 33169 65249 51797 25269 4643 20959 73202 31073 63089 81073 20949 78273 29821 84465 84769 913 48840 19693 88201 46092 77003 36021 16009 65169 28797 34449 17907 92389 48590 95977 7431 24814 90106 25427 76490 16189 95134 85371 87115 98171 6133 55881 55212 26212 26277 75377 43541 92225 56344 98631 72524 74386 86204 48178 64881 97423 88531 46017 68769 19875 44533 40481 71978 75669 21830 61025 28617 95757 83204 29063 93853 83982 76057 80765 28295 46480 51621 79335 12765 78915 42098 4556 28755 89429 41579 71901 24217 37583 45695 19447 8657 23033 94669 71846 1028 78919 95081 46049 84960 19650 27205 6062 19907 12521 57159 31089 59579 86726 10090 50302 94983 94309 3797 54617 29155 99743 35963 64433 34685 10211 98895 96319 10975 3585 28561 32513 11909 55567 29109 65153 8367 54983 22105 19485 33217 83117 3067 54659 47339 33698 8808 48553 86849 77576 57496 86670 76796 67621 87383 62011 74807 75965 67229 44104 31257 32812 14209 36647 94440 34712 63841 56855 67649 13849 17363 80041 33722 84965 41569 68385 49566 97788 77453 44065 6179 44777 34915 93057 64793 24491 68603 70288 8175 56977 27159 58657 12829 65516 39697 89069 69356 80895 95857 6398 85448 92628 95085 63052 35001 16233 84237 80436 2418 20619 41567 17809 9194 21605 38513 2825 49765 56767 53249 57975 89301 29889 82313 55553 36501 29057 51625 94372 10679 14441 14409 98526 4657 79684 94786 16801 73303 62745 98181 47347 11509 75567 32633 93929 89540 49962 9773 55804 55099 26897 80991 9099 22529 20623 39349 57297 56673 90543 31573 23803 13463 19878 63313 82349 61263 95309 13788 18631 78083 93329 37293 1027 28495 97501 88489 76720 42758 6517 32461 77077 22673 90949 47964 87875 37477 14886 73725 63083 36314 37156 99425 87617 92597 89851 36017 46701 29882 37255 60029 85009 80765 74015 87497 43419 73677 88657 66497 92531 47063 99581 45345 77473 75038 73637 25409 94429 89521 72833 74175 30918 3077 23774 96405 92953 86037 13653 8899 96689 34070 85558 65336 14297 83414 66997 90889 74457 19073 4109 79084 134 54309 73325 30117 86593 9955 3913 87933 89855 48910 69657 85903 52857 33828 12625 92005 55921 3883 42769 74473 96483 82721 99957 90397 33769 86505 22977 61785 46060 10909 37065 97075 97 2355 2491 18401 80527 99509 66646 10989 32297 23112 69492 52077 42317 59335 14789 69082 14975 14485 65769 99337 77329 72017 9849 69009 56961 57697 50599 57501 70015 95175 17300 74783 4629 75617 64796 47609 26509 13428 99491 71481 65539 6968 90304 63137 24177 39664 78259 1985 79377 95315 96531 99127 66711 93771 63669 13413 51683 41116 53392 18341 54073 85137 77441 84169 18133 60361 25921 91136 62463 31417 56341 25217 67106 90736 44245 13155 42897 1871 22100 55425 84347 58853 77994 81269 18171 1361 14490 89877 91673 65939 82488 68095 71233 36578 572 94253 3261 56637 76094 52799 34401 58047 50515 51225 44732 82839 72601 34881 85621 29947 83850 27290 53133 87275 60233 13613 61195 42961 40225 14421 69447 9999 98507 53978 27075 12817 32545 70945 52281 47191 64233 37025 67085 34324 30157 12705 84027 52267 44649 44567 36402 13655 62857 88808 87105 25893 13490 8035 26609 60257 1157 16899 55927 54634 28189 74479 92369 32721 29089 23019 84779 29632 86337 74401 22355 63594 95493 88435 86963 70369 51669 34983 10047 42143 10601 29167 1253 44929 70497 2632 49119 13748 30529 21653 1767 46020 36963 34117 66471 50671 89323 48493 53547 80890 74266 60023 98155 20801 15248 92389 23713 11457 55065 20905 46720 69825 40205 20384 75951 57825 60609 85665 73029 25894 39501 24826 25097 22163 96881 49821 40153 59441 21733 58975 26977 72523 11065 57681 41462 82985 98254 59457 75709 32793 3233 96500 70458 56855 76485 17912 37129 12645 90459 23665 70574 85517 99937 37409 72317 41983 73841 61823 43770 84079 22584 39134 83499 17761 25315 5579 2741 76369 17267 88167 49295 50495 24297 79450 95041 4230 75460 98727 85201 39780 33246 49583 42761 645 54723 80213 5576 41839 45093 54781 41377 98253 2916 72808 65515 70817 94712 5229 30409 7121 63443 70057 26529 57935 56537 44402 13773 59848 10069 61452 88449 38545 49239 38437 84626 55699 35303 90165 7865 36591 38205 87450 20937 60399 32825 77475 82867 82565 23470 75981 29963 55605 1236 25623 88969 56282 5062 76831 27594 96195 88529 73704 61781 98269 20727 56399 14977 54456 40898 39857 34423 17105 90593 86849 66591 71169 89557 47592 91483 96441 78753 49829 89233 5737 43890 35913 96272 72527 77801 57686 35232 77731 45050 80953 80781 80641 27161 233 50983 50792 82108 7585 72018 39188 4187 61009 4993 86049 58405 64781 26929 38674 60641 90817 48931 99423 86437 90145 29762 61317 43173 40237 53914 81169 74864 29695 39608 47078 45505 42816 43561 15053 20749 51689 82809 12587 91391 36889 75933 42140 10987 2420 24386 61057 53063 25823 35441 2145 10736 53445 60761 79378 39094 59584 66365 92929 91114 31873 33049 49887 66593 15857 80349 28529 28181 32957 37408 77785 97103 63044 11762 95934 18822 11855 55653 59950 40329 32266 51905 34615 82096 67183 75175 16374 50405 83173 59231 90800 93103 6325 79336 43902 51605 35096 21499 57938 50731 79545 41053 9141 4153 40471 11232 11238 12260 77755 91301 40452 65333 27445 57144 34808 79154 77318 83380 37810 98965 53069 58539 8598 1831 69009 44549 96163 64520 66667 77099 77275 75123 16729 4793 8337 64513 69681 36861 94313 51455 90817 94167 76466 41922 62699 24813 9703 51148 70454 34559 88657 75031 26243 2399 10833 60799 61813 75521 41537 12375 46675 29081 37775 47249 68538 61233 74369 84927 13703 57825 76853 5257 51419 95668 94241 20767 16465 94147 79366 96681 90161 80817 56501 81464 57667 41823 25645 43859 26544 56275 32225 26696 38857 8373 95391 23441 80369 37219 84574 81760 55234 17784 62565 92931 10757 77103 43553 23505 45761 28809 2657 76155 24029 22363 37194 32193 85357 7569 99301 43719 60733 95887 77609 58225 52262 56483 97039 37040 61575 77837 41133 87060 85941 61979 62609 42351 52774 19140 50851 50703 60545 21725 4349 7474 98347 22977 67110 35669 30291 60311 43645 96465 15472 59339 41377 9927 20005 74152 59569 53020 78469 91593 75733 69949 61463 97350 41792 42021 7025 5858 60785 18425 1911 25273 39521 69654 32514 40515 74156 51914 32708 30977 29483 80325 91891 67742 83759 65346 57933 61353 96157 73791 71923 30273 16689 47577 45291 17497 27621 68855 80063 95413 38449 99959 28313 10261 57843 98625 23669 42619 13315 84753 79641 46416 49747 34843 40680 22823 41945 84549 67695 76609 4465 75565 50527 68731 47869 98213 51968 92193 38117 59224 85561 74305 25053 74533 76475 69758 80983 70526 32404 69932 11056 4853 83075 70513 63036 82455 43079 91849 28465 41799 58717 29961 42282 3977 26657 77341 28647 68005 18997 46889 65589 68009 15844 67401 21183 98931 88292 19223 4907 70733 12852 67603 46135 91929 34433 38506 34647 54441 51273 51865 6441 92509 33697 70201 14807 78635 34081 79707 57960 22445 97105 90941 16033 9173 49889 57805 44801 8161 26273 92461 58695 93937 34146 95781 84891 40741 2611 88787 14945 65403 14625 977 8513 7839 74517 14453 36913 51365 45972 17521 17322 92382 47468 85824 52385 84617 4973 78967 99009 94715 41809 42827 9392 39727 31239 73535 20743 96445 31132 40005 18698 3481 47887 21249 69676 89533 46218 21347 5218 91557 62431 733 70257 38338 49217 35105 33693 86305 2433 40088 72503 30777 33429 16241 64142 64804 72849 12087 50015 14711 25169 10825 24961 71860 5909 73825 52057 64255 64599 16877 7701 88033 39511 36291 72960 9293 20641 15041 75317 17097 38949 55765 18102 88488 3587 92400 55060 37461 66615 42053 34821 21437 87005 28113 75459 36948 67973 27903 48320 79343 25427 15659 54151 12897 63737 49972 31869 23489 65765 56009 95989 58977 73357 39217 38905 7798 6281 59217 31352 27313 2415 2277 83821 33251 99633 23376 76568 11933 21711 20487 20629 11301 50700 22603 29239 80319 95394 28759 52827 7093 30897 3337 18145 77829 31231 89793 45681 94059 81925 75505 15115 99505 72737 57063 66975 74182 79274 41449 54197 18657 57903 77206 42225 2531 98320 11284 81753 5721 60702 74006 76985 73153 9498 87149 66585 31864 58129 62038 89741 53705 96833 72621 47865 39687 33389 37965 34665 85569 575 46826 59141 64092 16628 16852 32906 85171 47006 71745 9732 8458 76065 3423 40603 96693 75932 10501 72099 72076 82305 75920 18885 1921 6293 34795 6193 93605 85141 51580 33281 29968 12627 41713 57408 56705 54685 48441 89127 53175 78171 9081 8580 42684 30633 62131 3143 84885 67873 36989 13641 54813 77689 59175 17751 54550 13182 53955 78073 64275 171 7837 12280 14825 57504 70639 19773 77339 78328 5723 23173 47058 34691 74005 65431 24993 70328 54541 91867 9912 96070 90025 72701 13944 28951 58157 89193 30553 98305 50659 88103 92649 79442 39339 63473 5523 33421 20798 98977 90797 76896 4090 23169 46765 70233 10885 32025 77967 86051 21089 75161 10756 89097 86593 4509 35325 84343 77523 67345 7190 92039 89633 56175 52011 91903 11936 56424 10987 27633 46041 65791 3809 91593 49391 43313 50401 4938 9521 20637 40901 36761 60223 20167 52500 18625 51103 58679 7687 97233 62157 93156 57715 46952 35153 17350 38306 56874 54837 72149 19468 69884 79065 78136 16293 76868 42955 58481 41825 47127 58169 88452 71397 78441 25276 46445 64365 72276 18024 91315 57805 23318 55093 34185 71654 76012 25269 81907 51287 47143 19803 305 66249 56709 14529 3621 95151 63153 18033 97904 12745 14444 42996 19369 79711 11757 5005 98085 44233 91393 5643 15696 97796 37519 78632 30965 90526 12769 22057 31945 59198 47939 31735 39055 75915 97947 60536 87906 60305 88556 73737 34702 12065 39373 74563 4176 19710 57355 38357 10543 59878 88732 74217 81495 88553 25265 82839 28009 8386 32655 85197 68157 59451 64474 98527 90325 86439 43642 78129 80671 42288 51969 97681 43830 76705 39950 58849 11743 62551 61841 31745 52785 37059 99425 78676 10649 70805 44331 80361 21281 3233 8059 26875 2189 48854 63876 78593 2266 33526 98550 58211 21857 15013 14745 25615 31051 87739 1790 4448 77195 23265 20545 71436 34098 81775 64301 37956 51342 13979 71986 12705 36278 72257 19457 65223 89443 18049 68388 51312 3969 87094 70509 1404 61965 50165 34995 58441 63485 441 85129 70870 80365 75349 969 43294 69740 83383 37589 16899 77463 77679 31605 54018 62345 11915 72333 15741 99786 5721 11394 64567 11704 20367 82557 80501 26031 36439 30809 23977 25301 9879 80291 71408 5520 39816 23635 70561 83204 25510 32789 73614 17855 43836 1503 93802 85985 3330 79881 4081 16233 38408 65436 62272 21895 64616 12801 60019 48481 73557 43045 74417 85377 64177 80285 77511 51272 82065 7819 81249 18706 99297 78100 73085 53159 91177 57104 33672 91654 63365 53621 29187 61281 31221 52361 40263 3075 50917 74209 21419 90654 40113 8315 35025 17407 44647 36777 13679 53525 81301 53696 85533 27529 8023 98227 26657 13157 82517 19579 52633 37579 52409 24341 97119 74878 85355 54949 69973 57945 80510 66554 84648 91809 93106 82113 25185 47580 86282 36611 59561 69342 4275 65720 22200 82169 27817 55668 7183 2854 64702 46475 38587 3279 30425 83801 26404 98418 18075 27010 34186 97725 63370 50743 87511 89945 22606 1337 90275 42541 99351 7546 40225 55316 49177 69946 60409 46183 57729 71137 11529 51137 32922 76569 92381 53549 62755 68054 88757 87793 93209 26365 90742 5588 26585 47921 26977 18401 73099 43452 5417 2205 61728 51953 96076 10224 54993 70103 79117 32872 49745 22759 1789 94673 9091 63680 3735 97829 79463 30413 42257 74665 9145 71982 2073 42361 36705 40578 9921 1850 9413 25154 12449 22820 69152 8555 50733 77098 67992 32559 52749 15557 1803 11581 80097 11065 47029 21130 96885 77511 59457 30575 34256 50863 63149 11221 8565 42801 55655 3736 53895 21953 87974 64877 3231 96417 71430 62561 74963 50881 98535 53010 745 54633 41295 49974 50032 7963 13170 36792 71369 22834 29306 87476 77208 54162 71252 55425 52085 98513 20386 65905 6723 91793 86789 86689 88915 81956 64677 3371 36017 72530 5217 69665 9481 8969 458 65045 81875 23037 51127 2409 20611 73079 58964 58373 37100 63089 39232 95465 82161 56935 90669 58753 20156 17273 21617 89327 29345 83573 92517 10138 65717 43593 99253 16065 34401 46551 5724 41839 61949 78458 99081 87109 65388 58779 54883 71917 82401 45449 71205 42077 18503 14187 40819 2786 96773 98630 80999 34596 97473 12872 26697 94255 43310 7245 81982 43885 65009 96236 50623 96357 58635 58877 65473 73815 9700 10021 84717 23665 32677 43462 43219 13483 15499 70315 73313 77251 24329 72381 30174 51125 10299 95186 97148 63617 42575 35223 66953 19189 24945 3625 88421 48265 5245 78419 66979 83600 58557 97861 17803 47893 97279 88183 24993 90363 10449 85513 70773 71505 5177 66329 87145 79040 19193 16982 63389 82689 79838 82892 4153 16692 66333 57409 99427 44561 95391 42470 76946 62121 80025 67291 17805 43293 99995 20179 13150 28360 88809 30691 79267 59583 3742 64289 27455 90171 11239 48111 81160 41185 32401 8167 70581 10881 61680 89745 55031 14049 25263 75175 18220 44748 93141 71797 43109 62181 81583 36849 36185 52671 39333 26689 41003 18144 66641 39715 67425 37222 63993 27118 25963 50279 72689 1795 3141 18548 70595 63553 48761 1511 4163 391 70971 10212 20723 69488 20271 39573 52001 38529 51046 98561 26172 7153 70297 70977 77601 50791 24169 23513 59517 35877 1643 67655 53265 73361 4 16845 10425 34090 98331 3099 95369 29289 68861 10589 73407 1963 32585 91718 52899 8807 26761 91105 54345 23761 91705 99684 38515 22377 5497 41312 85428 53308 41963 34197 50355 63139 13341 17042 2410 57541 8951 27803 87643 98744 66915 39257 78634 99719 5135 62871 12301 35233 51237 11595 70719 26659 52974 15645 12737 40272 23233 91829 2541 44398 55898 5893 2916 75845 59161 35898 41483 69340 13895 73481 21585 47495 57917 73527 14775 51379 10151 98249 31016 33314 80357 86145 11607 73173 61713 72049 37784 11990 43005 23853 44963 57987 88550 78477 52833 46939 38557 75073 4321 52953 39071 80713 77489 5953 10121 49665 60557 40401 96569 94783 96113 40161 81736 11457 29191 35115 17307 34045 76481 88676 77224 84277 71810 95273 22733 89079 11733 38914 16259 75001 21718 10209 21863 19187 28585 72161 67396 24673 11269 60147 60219 65766 76825 7763 27488 15723 43964 46865 65723 54449 51127 96111 7361 27649 19840 92656 53601 57577 33345 95857 37267 19995 22229 68939 90501 70905 37353 95646 96937 27985 80401 63680 58561 75252 86057 9145 87727 40885 96865 97699 42633 33433 84385 44878 62388 95172 9949 18145 60747 94481 43357 69109 37377 52000 84758 41545 96929 42 51894 49225 19817 46609 20597 49925 98695 3425 73353 89409 50703 34292 29525 4589 84691 40145 5473 6346 25560 57501 87524 91183 96257 78817 6276 90385 23215 68732 25819 81919 63142 64257 74138 92135 4631 33509 49299 20673 47369 63385 20547 78304 18143 39292 64001 43157 45358 37697 72335 98049 18201 14955 21189 7477 86563 69427 66587 50010 25601 86651 33725 27770 45989 91617 93977 94455 102 60826 72030 46423 61785 21911 78543 27617 36745 43750 29057 96556 66449 49114 637 33279 49596 94719 39799 16837 90837 2113 45890 20201 39151 99235 84503 52674 25157 21083 313 59920 77967 64776 19035 42135 90057 85763 51109 62651 3114 77537 84105 1110 98144 3997 28170 22353 51757 66601 31977 35329 7769 64273 69619 92191 89795 59451 15559 69633 69556 81925 52317 74152 75503 85339 38961 72719 54347 63788 66981 69649 2024 6559 56051 89661 5996 81413 19315 75263 77945 10581 18473 46594 92890 42465 57057 14331 68175 91499 11093 14766 30231 33027 59190 95009 34597 37629 43431 10815 42291 59453 43245 54971 73235 27307 27519 33355 73263 33853 4063 34033 20689 78029 11897 53625 4153 62433 23203 35653 49842 85429 32107 14401 50222 99365 96665 56192 84241 96449 60789 9409 80397 69975 5342 6215 30572 14673 19985 11030 50027 64711 66785 13374 10977 83217 58430 56973 41713 27370 35638 96861 69946 5587 55336 77497 37273 18862 73149 35883 58305 88749 1266 21697 31601 93233 52281 61321 69835 39367 88673 99340 44321 3031 64515 50466 4305 49548 70853 25097 41845 70771 48821 17846 77745 97795 89109 6324 89839 81277 46185 73766 94060 64186 22977 83041 47201 540 74249 30251 64260 2401 2990 81665 60951 60842 22985 81475 46295 54901 64051 17696 79543 8881 84367 43429 51917 85169 4856 2534 59057 65765 9897 48003 38982 95753 3989 78400 58553 18362 92133 83000 81911 31213 46039 43546 28033 37517 16733 40525 83593 80373 88693 38734 28027 50129 60187 99147 55708 56543 30857 54045 11635 38165 84188 99677 34813 65469 16089 17932 96431 19622 8601 94009 29583 28953 83228 88313 23637 63785 53171 16225 21993 255 94931 74119 9723 79987 73007 59881 84075 53064 82219 87316 51651 82543 37915 57132 33613 91133 1261 89810 4921 12537 14929 49153 13039 24033 97713 68218 12141 11729 6045 67441 57224 75057 37351 82095 44412 80265 38161 76429 90761 88488 25898 69969 21434 45147 54425 36886 19982 9209 89790 7738 17171 56875 99921 73573 17050 73649 99451 8907 48016 97854 47593 89713 17288 28823 52219 88209 2269 24631 32541 97287 17864 47285 33121 66410 23063 60687 97257 33880 17888 35960 59925 25554 88225 68889 95490 54559 78239 17057 31274 15501 37762 67147 15022 74561 68229 63321 58203 81357 85809 20209 85985 84149 55247 47063 75791 71336 9397 22378 79272 38738 55457 94661 46561 96329 52607 47139 74513 19886 1099 83369 31894 44376 83297 45348 51361 71595 5443 34170 28719 40975 60281 44313 44901 33295 10862 77792 23277 40945 32995 40986 47597 23957 60781 13297 58131 95821 20049 42256 47493 35381 75138 56493 86797 7807 25973 42833 97937 88914 92677 58859 273 8969 71637 39511 34015 43313 57847 7508 15842 6531 34271 92873 1089 86577 96025 19129 636 38399 78634 36021 73355 52297 35609 26680 19109 42629 16507 19753 80593 83141 30451 69020 6589 27308 14107 91921 7309 66233 49777 83581 56455 68270 93409 48705 72281 75326 34192 94977 24965 23778 96517 88001 3701 4603 93652 80841 99587 76566 47889 92496 46262 89261 59420 78849 90701 32321 56073 94882 33826 73401 56869 84977 99519 23369 58849 7373 24017 88963 45505 19508 3997 87601 64081 86791 12828 74681 11973 35793 44694 78637 65057 23585 52713 89157 9475 68669 21721 36017 75631 39377 51925 2505 44289 53057 19545 75695 56437 50385 37217 40369 46309 36228 9289 35738 48538 61806 26555 92749 33 91537 35437 48334 3766 7481 87969 35201 39135 96807 50593 94825 6489 25265 8193 36076 98425 89739 44633 80808 87509 88052 9949 77839 78316 71386 73653 77633 7133 20213 70485 17687 5285 77651 65105 46 40211 80859 2317 50410 64971 92325 28368 67251 83153 22017 26897 30772 3611 44611 79635 19871 66963 97060 47113 37921 990 16722 6405 58001 67863 33573 56724 91815 4801 18439 19053 35992 35158 29661 87649 64849 8001 69611 76618 40073 73101 32157 86211 23497 13887 76249 45109 88919 21615 19749 5105 43169 28403 12107 10684 92955 35556 92575 90849 14137 29625 14899 47741 6257 47513 90379 20757 23825 66817 72769 31999 26225 21830 40532 40064 29893 90209 30131 76617 82819 15634 71887 71041 10850 11552 48491 4751 71649 39176 13275 74000 14800 19536 4893 99 25409 84055 22735 42662 82593 87934 22273 18722 61752 75137 73493 4335 31917 17193 11201 43573 23249 26776 5886 66159 12893 61472 21273 1347 83368 28501 81401 99149 72135 76937 3252 12105 84777 41296 57777 3897 75187 39009 33915 74047 53862 68321 70457 55073 11265 47105 641 83471 89694 86115 48649 72536 76338 95740 52532 91758 46604 73573 56769 78285 46412 59108 62591 24137 38837 42744 99423 29156 88307 61097 45635 90308 37614 24908 95245 63749 25089 59087 98428 96332 86585 43217 75477 62729 15861 18981 69025 85840 13119 18823 705 81025 37825 74337 2365 44672 75813 50432 62947 99361 60131 21295 10529 76369 61193 84721 6661 83789 45283 7043 44515 13617 98721 97589 53019 81267 44649 89843 64531 23993 29091 26583 94477 48949 96686 51382 62429 9425 3031 78685 91359 97655 11767 18027 76223 3853 62755 86377 23161 78469 34015 1169 63749 41831 72132 34593 76225 5345 8991 55685 6641 216 88588 10841 91777 65060 95357 48646 20018 47064 66225 19157 45217 48193 24007 31912 7181 15029 34869 61425 50155 75366 57008 19566 6481 29399 69397 80149 93153 75536 59727 35317 24454 89689 89009 73413 80030 86999 16528 79797 95346 87395 98717 10095 3529 81801 56917 8489 80869 10359 74233 82685 3657 88971 65149 7282 7949 71388 34864 46849 64834 41297 82539 65646 53359 95005 47787 86176 81657 5639 29957 80961 72573 95935 23725 61198 44737 73163 44344 30957 48208 64960 92311 1221 79809 44663 26737 11081 73148 43657 20198 27462 53484 6809 81381 86449 86977 58923 43695 22209 59763 4929 7779 19749 36637 7657 37373 5715 97214 47152 47223 31492 86237 57133 73831 23800 91297 69537 63264 63145 54497 79877 16875 4599 457 64540 15788 97815 89974 43871 69715 60405 83701 33720 8879 56532 86933 40729 35081 59496 29451 59753 11065 91781 88437 81018 23817 2375 6293 59221 97945 1851 84703 24892 24584 75668 38913 40840 34805 33354 67429 30360 87791 6776 52584 36157 22093 52673 81225 17647 64930 46617 92377 48925 27129 50682 7271 80949 66275 86721 30856 53194 16481 54701 53576 3125 8145 20394 19957 49185 88597 15577 39973 97597 3829 16541 30589 33165 63073 45295 25149 83741 86925 21307 71246 73853 59414 2893 93583 34737 51807 833 88161 98776 2233 54353 57599 93455 33159 5276 36446 91345 32703 52199 4028 7374 94609 2367 41618 12211 48968 91045 25779 77845 79920 29875 95719 32662 51473 51430 47785 97460 87053 78623 58601 91197 32359 40941 6440 32148 41873 51221 64691 33011 7026 50479 52797 89355 64297 83517 27567 42185 15835 66485 57517 57833 54005 88481 96834 52879 9761 61762 75081 21909 95007 50337 79729 17462 23525 84367 11780 39588 30433 7845 29993 42625 70997 605 13721 47957 16196 86308 89341 78681 93208 80257 10643 48130 96272 83328 31293 91612 77793 87412 51216 62049 58707 153 61260 21590 93741 40865 82419 71509 82209 54493 89897 80137 36759 76213 91229 17595 53019 53533 80657 80888 17762 81469 57163 87502 65620 24699 74489 45792 53351 34777 68065 25938 63507 84719 28590 64353 70715 86671 47037 58177 85314 3536 25228 49461 58075 2092 60539 80439 94253 86753 60423 31198 41521 71576 41451 40839 77151 79425 90285 63019 8385 79753 4673 23056 95153 5928 16619 58237 41353 93646 22497 98999 80771 5867 79761 9019 60076 61897 50105 11424 50942 15379 32505 65393 85649 51333 85273 49035 82092 96405 37756 42460 97555 70601 67016 78459 39509 95313 14997 3663 80915 15633 8149 72609 71063 41325 27170 28005 31913 47997 46746 44793 70437 23513 34497 71461 51696 32575 93729 77739 84097 57953 58537 750 86223 42260 3423 66557 34513 49217 39513 84709 38868 57801 43225 82049 217 37611 73902 72144 51117 52555 60982 73409 8991 61018 37941 61697 10496 73724 81191 45933 18217 26935 33111 88147 26727 27789 81219 76435 34945 55532 42619 13138 12978 53697 42285 57611 81409 12249 31361 59293 53065 26622 30829 58435 47117 51977 25123 91649 42205 41403 5387 34405 39597 25757 24568 45622 37202 29547 23839 59167 87279 6652 87882 56007 51921 53043 55089 83568 64855 6733 46347 13909 42417 36205 19841 26921 77701 62713 16088 4725 92906 24499 65073 25237 11889 92998 54601 85441 26291 16834 67613 44389 44175 48827 29179 56409 68105 75889 53856 22498 56404 18251 35265 41209 19329 30417 33213 67489 54635 34720 17298 67143 68081 7615 41287 30115 61326 79233 6017 41807 12730 28561 45665 49870 89127 94967 15707 83649 38385 18049 86852 43798 72260 14172 84751 29571 25889 33873 29408 86518 27815 51928 49453 41499 26633 6591 50605 27692 1909 67339 58560 24952 87707 33141 10399 84923 32449 67479 63797 7412 16849 93372 31777 19132 62423 31227 18040 30598 66033 76435 61027 50610 81880 84896 95053 30065 5207 66379 31024 80641 87773 42938 61233 25640 70937 23841 45526 10093 6935 5601 58465 81239 9309 2748 30609 97342 97055 56518 43537 49329 92206 22401 42801 40153 9017 57635 12732 29105 21225 66832 74369 76477 71859 68651 3173 14481 2511 63551 32389 85721 49371 8928 56071 26736 65495 71745 88479 70399 84085 23425 39904 78567 20959 32335 81325 40989 71791 66251 9429 80193 54609 56129 7103 30155 16507 24831 91712 27120 72169 86155 77670 47929 70897 88807 27295 42045 3603 13965 85766 82115 4017 42605 4657 9281 64736 23347 20835 83953 90021 14445 38001 95349 98403 4401 83851 85061 29211 61897 62766 29977 82225 15483 59131 37269 18123 81493 92519 80224 13651 98473 90107 55664 75 60371 60897 11927 75537 24693 41212 25639 81435 69201 52189 72417 32520 40257 50114 13206 72793 90673 47944 57435 42545 30637 57095 46759 90315 4665 78693 14593 24600 93263 54285 4437 38669 45837 12345 74583 29691 86465 49816 90305 43037 46593 26765 99833 6431 57106 5287 92817 91574 40225 79358 56848 77713 84963 98268 80386 77999 43495 85887 57410 81973 60641 56955 36897 82159 49504 8465 53631 59939 65685 55207 92825 26530 12193 84721 77493 99459 993 59546 42541 73299 18963 32031 82433 87621 12609 69793 30952 42352 54491 4065 77087 29124 72021 88707 6617 91585 66815 30970 46687 87809 75249 95973 45173 81830 93736 13185 64105 83112 64033 66153 41905 3305 90695 93665 87633 54301 87539 18480 55213 87996 83711 70645 77441 42973 72406 63435 88325 14337 63687 57271 16238 48634 46541 3269 50753 27721 80013 41165 71359 30475 29217 98918 2020 13665 85857 72385 31785 91862 77628 56856 31969 4179 56281 84321 386 5813 33939 44493 51943 95610 3748 59299 30797 72421 54587 68439 57093 17157 82494 77279 62409 80127 95305 5413 93910 67621 72603 60522 13587 40170 39329 32252 54737 99901 81061 98729 83845 70399 92693 49554 28345 79169 99448 97 52581 92433 6631 2161 40889 59823 57175 55712 35450 52420 70652 93279 79209 30474 7505 46955 47258 27765 51393 42241 77227 71803 21976 65989 25949 88196 16815 78857 32377 44335 10409 42048 99323 34761 51225 18125 20709 54777 35781 35499 6745 43265 70401 61046 4375 34436 82531 94790 46517 54125 10040 66825 28523 59539 83623 95357 8103 23677 19919 85049 53300 27049 89897 97885 18890 23440 83157 53226 64779 53633 9009 44545 30095 44185 4309 27273 97215 23759 88405 68363 16246 92742 44755 18073 15155 23281 43573 26081 70691 57150 86745 44525 84689 99459 97818 11777 40287 89194 5541 68928 23607 28130 14217 80857 71033 25137 9321 7337 49073 40088 897 88686 98996 53020 79711 59721 32897 20951 4153 62597 3642 8645 1737 12505 10851 86645 35721 27327 37137 66803 5381 7793 45288 82059 99196 65636 94737 23723 49785 95409 71825 42421 96103 37661 22389 82097 75886 78905 78434 42242 82567 54737 44148 20141 92057 11747 33153 87849 68129 98865 19063 72987 9329 43519 64503 8072 4092 4982 45168 5973 48825 53049 31741 21818 53584 26419 44001 88107 54776 93889 45069 37127 20127 86017 83414 24565 93041 21065 51073 95863 3025 46305 95700 81849 22647 14787 24449 18783 22587 97393 74669 61985 99361 75489 26925 26081 40945 66011 25511 83797 6140 62493 58285 70848 54545 81853 98899 18167 25113 12385 73058 26273 32018 90645 37193 89423 49834 50569 47976 48675 86627 53994 43309 61889 65033 28497 6036 8212 54430 99437 43332 96047 78305 99364 15409 60745 88507 49716 89043 61315 27485 55337 64603 9985 30991 76001 85153 31854 87259 86323 9935 25573 70021 62529 41192 89397 42088 4459 36363 48053 31901 37496 29672 70939 87817 76571 22333 66813 73283 71967 62621 25789 43519 62177 15778 46715 21831 3697 70596 7963 13613 52875 13995 98398 88247 57248 32975 76302 16029 83501 91211 38337 11089 29081 49444 18163 91597 79857 61549 80885 71167 70713 41259 37905 36893 94336 91335 53473 25665 52135 40957 31817 92794 98277 26370 24945 23952 34961 18681 89001 87118 70071 69269 83151 20417 2181 70881 72145 71959 72537 41231 31706 44365 24239 12031 88581 4005 69713 51224 99873 37629 52161 12434 76000 38728 57821 69693 66554 51770 78913 51073 68707 77372 96831 72803 96337 93587 63427 73157 85090 89105 53288 87915 98914 1850 92313 15186 55286 11199 38957 73682 42719 21253 53009 12393 84717 29405 77761 61615 67013 82007 79869 8871 99463 39473 4161 36281 6897 23005 77129 36017 97057 90447 78606 99561 91436 25814 77543 6175 5109 22151 86236 3081 64605 52463 60472 33916 60685 79953 58093 90085 69365 52428 40043 39709 96481 36046 79950 99463 38002 19809 10433 76032 11073 84009 46197 74100 44783 603 60569 20129 85761 86501 79049 23905 15386 79022 28059 87082 28257 50234 78705 9775 93225 89751 32249 98375 43379 61893 8095 70388 58648 56813 27101 225 89604 36961 92621 25981 41585 6675 67542 91674 81582 45088 88881 21409 90607 80729 52581 49633 92127 74429 11833 80859 29365 90474 58716 33041 82989 97603 69242 76175 38641 57699 11319 60382 60051 65028 99274 26931 37273 37197 60583 13873 52758 39365 35853 72695 66614 39081 72430 14641 16705 45631 90393 34051 87898 18457 81218 59261 36910 25303 12090 7143 62993 17265 45036 63234 69526 86653 21226 42725 90949 61861 64005 74437 33357 15873 16961 38047 35250 88618 56849 26136 1999 23617 61756 28455 89435 21723 65197 22240 97617 37873 68481 8012 63569 60793 1241 63666 79021 98732 84951 99070 11966 72631 28676 24325 32113 25397 73905 43063 85181 93354 80862 50107 81714 80705 44493 650 32675 13401 78187 51459 94415 42849 30102 20596 81879 72309 25540 94073 7617 32543 93833 10417 87185 57904 73153 30082 43801 41414 16881 55985 23612 60085 74017 32417 44929 13965 30044 7521 42866 13146 67983 58845 1517 10513 73313 49941 43663 3341 22231 38507 37485 72296 42691 57117 46397 38993 63404 13181 6093 37219 75397 36417 47586 59093 68097 43697 74069 61115 64357 19019 25404 51221 56620 46207 74650 77107 3455 14174 56321 74861 87869 67233 27721 44609 74771 13729 24653 92497 561 51287 62120 31308 17480 51846 49558 67131 37392 43013 62033 70665 59329 8117 87779 24973 77057 21282 19855 70919 13589 20853 84354 78013 97155 61119 49407 50603 65377 95233 26353 10172 34006 27681 88493 73983 27319 32595 72922 30469 19872 96865 66329 74661 43443 69425 50429 83642 37273 95194 78817 58545 67919 13316 48791 52689 75358 26624 65221 14454 57554 51546 41800 65835 45792 93035 97672 63280 35198 77511 90561 69204 41609 13164 60857 5159 73743 70719 54110 98425 77305 60485 35210 28745 98224 51192 96981 76679 50423 59489 72953 49869 70369 59852 13544 49137 51086 7687 23867 80578 77271 30287 39450 96063 3857 6725 38681 71690 25877 65913 72386 20961 59622 95184 94863 11685 70451 1045 22060 32555 99106 91635 11842 69394 39287 73749 67707 30955 81251 79053 7220 357 78992 36345 84687 21621 88416 46481 4699 13723 71726 29704 83707 66733 6745 82462 46273 25121 27465 30517 62849 23415 22215 69081 57129 15771 41483 72201 71357 76441 16897 64490 28609 50545 76919 17906 73899 12229 56930 44661 35585 38657 99241 11110 25303 90918 83273 85141 68225 76375 3671 44742 75409 81849 49701 66998 70385 76315 17117 38161 62824 35206 59283 38375 56848 16373 44853 38271 76979 92189 77796 41627 96860 99869 32729 74459 55657 42881 73229 3525 54321 8185 32851 3881 19011 79963 35340 44811 31302 72916 46525 13842 12233 96041 12693 27777 30624 86013 29482 27450 76149 16188 29551 94889 54012 42184 10907 88333 49199 76068 74505 85393 88061 16491 91817 23705 84293 19797 35585 13207 87221 80085 41446 80371 67917 58310 82466 96465 99797 49468 78897 4675 22679 86880 97221 67137 69091 4897 44001 39744 53133 44533 76746 48091 4352 53101 35105 61775 150 9887 39776 13341 77965 66966 18022 16877 30647 27555 67425 41163 7231 86090 62777 29419 32737 47753 59882 61818 91929 98800 46178 31810 28573 3969 41430 6264 8281 84577 18953 87843 80853 26233 60460 3825 36873 2491 56945 58606 30947 21107 87601 46533 41844 70838 6949 14297 66577 78063 37651 69136 54927 41896 46605 8548 47841 60216 89582 70235 92449 14201 50268 81089 3841 71839 58649 6757 38177 22795 19383 38668 47750 49621 96973 15282 60603 53998 83795 30529 45537 76091 50437 95233 87889 19935 25129 56345 9539 50470 45708 14394 76606 20528 28508 39885 76896 30785 35865 73727 74907 59391 85129 91133 27597 11407 90397 88563 72874 11401 53297 61572 76625 47030 50609 24413 92329 26622 48721 59066 63417 52732 3039 14541 99502 54555 17209 42990 94217 38990 41395 28920 31501 84601 29541 88930 45627 94242 4801 3043 24145 91447 23271 95945 84705 71446 5924 31505 31922 55273 62921 66265 6067 19505 19649 61665 52709 78833 87921 82433 49234 95425 42940 34134 37777 72531 904 83134 68315 39383 74109 11149 20193 84657 85075 62356 3203 90398 97033 56999 44629 1251 67877 86105 29657 67125 18192 78552 20023 26157 36147 67792 93953 57227 61596 87477 93629 36782 94497 22563 23873 48691 97223 87106 49367 92017 81903 66965 57985 74165 27645 11737 91235 74341 97365 518 80923 23636 88972 94877 86033 57181 93765 63939 47768 60238 79771 95609 2173 9033 75989 30598 40189 16993 66231 52771 40580 44781 91231 45093 73919 39089 35602 79655 9971 30843 17893 5233 56882 92535 14181 37036 40229 37865 8455 78846 52939 59927 5529 13251 65777 60905 97029 54013 73945 92907 51499 53011 56287 26302 12763 38135 15341 51792 41356 86448 47304 39590 65649 86053 8563 40602 87857 55 87717 8768 18465 69057 20812 7337 89177 39353 22305 92702 44337 59527 91345 48260 37825 46411 18474 11869 7919 95651 51489 81744 88337 59439 15178 32957 87262 69521 60461 96192 71535 64108 5585 98537 59809 96285 15793 35296 9514 55345 39297 57424 60629 76824 23921 38762 59481 61793 34494 71003 10259 88110 54346 20126 53764 72053 80585 9262 89120 50731 1761 91073 77898 64907 7202 76237 94107 35525 93135 84164 84429 44713 95320 27721 96337 52121 20455 60537 48871 52061 3602 42913 79863 18019 36273 62329 71033 49174 23912 93433 55505 43707 73670 42017 88985 51429 79891 5337 32244 24607 72150 99829 41353 85569 75927 45933 1575 41785 77385 86845 25753 99317 29961 22634 77513 2435 63223 31723 2609 78001 82165 24431 63552 38273 28226 14305 96798 43613 87777 30508 75633 51438 64487 16419 85221 45135 39009 49589 89239 14381 34250 66793 22853 28646 40209 55595 90641 88121 23097 49867 48658 84407 54491 51617 87086 36929 85361 30257 39836 82427 90464 30209 35382 62934 52902 19486 50049 72257 73121 4728 84169 85531 14300 29966 83097 21769 88130 15053 22445 59130 60201 37767 37309 45602 30405 62001 32813 51582 52185 48040 19551 21229 61385 85657 56725 83345 6353 90901 95115 75767 83267 54395 57630 21179 29017 11673 2113 77135 71906 39712 50013 85470 83988 31045 99124 42690 16378 74049 7126 63503 24146 60153 7233 14917 16911 60394 33018 82610 54597 33981 47761 16553 2349 5345 79472 54954 95805 8258 63993 11637 21982 96581 47400 83973 62319 52153 67083 98520 27433 47675 59115 8349 23889 63534 40337 88112 47697 5357 35545 30873 10492 92289 52581 47877 67628 73901 29546 33569 99475 90151 53073 68080 96373 49296 97739 17106 68843 63717 91233 18642 2819 21053 93956 67523 37513 72865 337 94065 44282 59678 64857 25089 48385 19509 7856 64712 15265 66133 25601 22622 80145 76341 18639 58441 41345 13257 64949 47834 30170 95581 69175 60987 71925 68537 13519 31939 66333 39172 18324 82067 97876 40529 20934 76585 15895 74693 96188 257 81728 57160 18029 19241 98173 65573 62167 19153 89845 38879 78121 48867 80465 5670 50977 14053 96769 86254 51276 18741 10889 81089 79750 67879 5925 59129 74917 1505 78004 25159 27481 76447 44897 84470 44409 48353 44264 66321 59437 67130 13450 19417 87461 87446 75419 44021 40721 83549 99593 79373 97192 98383 23211 94741 81317 75256 44865 47653 14711 64257 22181 92366 62644 73481 34670 19814 15833 45123 97953 37856 43713 898 88785 37859 18237 74481 17547 69427 29797 72085 30975 61942 62316 92169 85387 33146 5810 55941 7011 12265 68398 76329 13388 5037 77316 30057 34515 25445 42839 32897 30427 39056 44655 8278 59075 64968 62713 61219 54785 88661 43016 4299 35681 73059 5569 11715 40187 12051 23592 88175 9263 98999 81503 21913 83553 6107 22089 36968 52401 62865 45022 19457 69665 42801 40921 55937 10853 57654 47965 76289 80995 94650 40089 76585 66834 14769 58242 97287 51169 76449 39458 97641 52386 83489 83172 46080 93153 94019 75561 79732 33456 87701 27310 7119 40403 15687 41805 17449 58823 95015 64237 3929 567 91217 75367 58813 78356 46618 8149 67067 78479 8729 67889 249 72057 57289 65667 23537 79922 30164 37270 3761 49885 55269 79135 57817 87637 69465 35825 16335 56026 43267 14941 85431 490 16489 62988 289 20806 46471 17711 68849 45098 36237 4565 99733 95285 56908 15887 79679 42033 99811 57796 10113 61592 41481 46171 39324 33057 85818 4680 86135 7196 87863 71033 17903 25582 46548 92977 76059 48289 7722 66691 60025 22886 84829 41693 5773 27433 48937 85153 23763 69090 4495 38009 61272 23063 41438 26205 61057 48037 61397 3563 6241 58941 67628 86213 83300 57933 61317 31073 95151 36221 64821 61985 51954 45703 74645 40342 39799 99629 26873 77104 70599 27206 33376 85979 59525 53334 6969 59813 77617 18798 29853 50366 26585 36651 38421 12157 61147 88007 9083 90989 80433 14214 64689 34025 76853 26923 63765 46938 71681 50337 51841 80815 29497 13908 80225 13286 73129 50001 86593 68709 61541 31309 68257 94943 92941 33921 11618 50585 76839 90136 8155 40810 37281 61518 47233 316 48657 60613 48441 49770 15455 5009 15187 36314 3923 83239 94358 69485 37111 73177 48867 10857 78033 88002 53299 13831 69697 76271 51408 63091 77717 1739 51265 48957 21583 42293 12217 97099 21903 72347 89365 66378 52590 40334 82593 72129 56377 4860 10913 7155 54161 88972 72137 46825 76503 87181 35221 77561 42793 51825 84929 48289 76825 84022 19873 59606 37583 12657 53217 71313 10496 54406 52223 21633 76313 27490 46985 73785 85091 25760 91348 31055 8505 41177 4533 79916 47441 96575 94225 74397 17129 59783 54974 8219 30195 72609 55689 49671 96559 48977 36491 87512 65833 16861 693 10497 56445 54542 41436 27258 91170 98452 47997 15244 15873 35762 91697 21425 27454 55805 21057 86746 46864 29295 46669 95450 40524 94036 35111 40429 52963 36655 20576 12817 85556 38013 46997 72321 60321 86232 60607 47423 47288 23905 40625 9405 74339 10139 87454 23031 99110 73429 55249 18400 28873 4377 94022 63843 66801 32618 79736 66841 62645 63906 19104 45075 48573 74691 97479 78545 44344 14737 62629 25687 37381 73203 27377 13965 83475 84813 19921 55263 86873 95859 13985 36983 21346 9021 24263 82934 75676 40529 34129 26714 21885 50719 63927 63263 87875 89683 45890 99871 36481 74279 79041 1640 3377 47148 47259 91969 70633 50369 21164 64327 63321 33637 50689 15361 92225 929 35686 9436 79793 35207 34618 70081 29205 69265 25463 57333 77943 22601 46655 17101 74355 60109 1537 88583 69153 19216 63851 47689 83292 37 45950 4517 90801 34019 76327 26977 24087 18455 13263 67589 28921 21817 923 27173 48816 84550 49505 54113 83017 44399 89726 96694 94741 10077 85623 34897 13703 18153 19881 43860 53663 54269 78004 86052 67873 58511 13737 50069 10273 78417 78582 63059 49353 39247 34016 41703 19437 30425 88369 13929 13187 6818 82806 24491 86394 74769 3583 91273 18937 31591 69072 48775 63815 85889 94637 80338 92913 11159 23879 43798 20451 40577 6563 77299 70819 92561 39687 69313 3445 76412 15599 13917 46227 53067 91221 79016 25501 18154 95505 35569 59825 68225 38407 83741 65028 85627 49644 58603 99497 29097 18553 30249 36577 20609 25709 37001 36118 65399 29613 66131 26811 31865 82766 25585 3679 22177 64223 84705 1780 10851 46425 86888 47020 41481 98594 3682 39158 45137 2945 10439 5811 2401 29094 90285 4573 96792 91534 79249 70480 7731 60458 10419 68036 47517 11073 57373 22695 29213 78294 68171 23355 59854 24920 35023 99892 41301 28844 13265 44353 44769 77183 91852 88738 4903 80595 69345 3951 2352 25889 61839 47803 23753 78949 23732 16338 14437 63504 88673 27064 9985 88807 39331 69521 34107 19607 77250 89676 27689 95329 7923 38758 25556 56506 67707 54333 28961 99502 13493 68801 3738 37616 64093 5673 95487 65212 83759 93324 19668 91929 19123 67282 38675 73093 89306 30026 63125 6386 15163 28978 82109 32998 36777 4780 76393 863 91065 86997 6723 65157 55371 86477 23777 67689 90217 53575 40946 13211 74359 55547 69299 16247 69979 66547 2449 60217 5299 90847 6077 93591 47518 52615 26665 89139 42977 2572 38447 39859 46805 7329 96929 22313 490 69667 27143 92866 54873 45854 12324 85263 761 30393 40763 39489 40885 89066 21855 91784 98423 51418 23566 28153 35696 52005 3634 50877 65385 50591 21581 66677 61207 28881 63187 18847 20391 85739 60181 99793 92526 26745 37685 38576 81773 16255 87371 1385 5003 20074 41047 72677 13993 98041 56107 63800 8642 73601 87519 99975 11939 49818 59456 49841 84960 545 88637 82809 63694 76979 63662 613 90251 82465 51108 75580 50733 54277 86033 35872 30471 91248 7577 4385 71383 9380 46952 84541 32342 26533 84465 84023 88705 94769 60013 53173 299 16921 87685 28127 31145 27761 21357 460 87536 95921 69282 88801 43487 26142 50105 51646 39129 6473 60229 28687 67545 90545 13145 31193 21697 2317 75773 93910 71713 39645 59472 57273 78017 18209 97831 618 73407 96688 73701 63041 1727 37447 67681 61474 23837 46814 38716 54800 67310 4377 6845 7709 88222 59619 82563 55097 90381 6040 63037 37145 65861 7124 61872 96733 27809 60287 67183 87537 76241 74276 73489 65573 17037 67145 6345 72029 6987 19612 81457 49822 57027 34288 21793 27522 46528 16220 98273 8106 8304 96235 95843 65793 21259 73533 32657 32353 76644 32377 12627 24751 99905 13701 63610 90285 91191 42488 24204 40273 10549 61313 21341 99861 69513 21582 63907 35065 70327 70347 46917 76078 48041 7523 97624 53381 91948 94677 99778 31675 7513 69497 20433 52246 79874 91320 12377 73284 72973 82259 55433 65405 17801 79441 13898 7121 62115 74939 59049 28673 17259 13291 55847 96161 37335 66440 61877 90317 9129 86737 7747 61817 6791 13105 67 93316 86143 88365 79283 65017 40609 96682 44801 61427 22553 78307 49315 93101 90836 88421 28513 1629 51028 44329 61745 99871 42673 50778 47130 47473 54703 55059 90341 87361 43700 22689 68833 13983 1422 4989 99237 83680 56194 31521 34465 49556 39217 74165 68568 4297 96338 50639 49497 78596 54513 12976 75675 83785 8057 42387 831 1243 49259 2839 74962 80517 9878 39819 20922 34438 86925 59033 2250 76109 14980 16715 38023 76015 36661 64173 59259 86861 24975 46598 16071 11023 93057 92097 8773 77322 44033 5649 23553 15307 42942 71491 95565 35742 93189 97471 42437 93385 9614 78657 78166 4717 34377 35567 56676 26017 13319 7369 10825 453 76822 58147 11249 80668 14643 60705 71068 59549 56846 59866 78922 78913 98105 14097 92997 74984 72961 84667 38594 81113 73373 43037 90107 75629 91779 93777 7881 91013 1787 37026 88889 65839 9201 44721 88545 83243 51994 89960 91239 80353 55747 52785 17147 15 52833 49641 32627 14566 4825 11939 75629 75673 72705 26037 56489 92103 69705 58074 15885 9337 34474 44065 47529 68908 58800 5505 66353 62137 44657 65229 93777 39105 49651 6795 38929 55271 51809 24743 25033 34609 21275 37633 71377 83475 61181 19846 44357 6232 84509 40135 90131 31717 24921 45277 58322 57477 65585 80799 10885 47920 37112 48069 9885 64261 23141 95322 38224 12473 47601 793 67949 52284 32391 36065 11681 24449 16951 86161 15019 25171 51201 54673 16034 27676 49729 97221 17593 52379 81160 50179 85693 49341 64607 61306 40907 86341 83947 7951 77131 93993 98565 17345 86945 86101 46404 46819 52469 81833 81177 48113 91482 35809 58993 83879 87967 10427 65469 71449 62257 78193 55769 57045 15365 83985 21321 86441 26466 93732 80257 52490 19933 13079 60255 41853 37485 2625 49335 10177 4785 88140 5081 53901 45825 18055 16759 49110 30545 1377 60229 7359 63134 71722 53785 17893 63073 23553 31265 44811 42221 65673 6737 63557 22931 10675 36667 1017 81780 54664 18636 89111 24033 66038 80193 33017 8658 18595 21781 57461 32107 58201 57738 61449 4102 34849 27093 91432 43738 19521 57365 26152 36575 54310 71073 9638 2777 69621 3737 62592 56789 47105 90164 69469 67593 10250 53241 63309 48697 37186 73061 5693 4102 73861 60625 52605 95412 38892 29961 92353 12546 85474 69951 87411 27783 53365 43383 42405 67707 37201 43085 55859 95477 77817 49077 84101 5271 26277 70293 11407 97970 8775 95881 83157 4473 17738 26109 69953 32660 87339 32513 5705 39893 80377 12719 27421 72507 69609 33485 24284 36426 4647 76427 67773 16085 68659 77754 5414 29563 60777 19191 9229 65561 24484 37561 58 38549 73679 2653 65707 98235 62844 1130 13429 96537 55617 55959 65483 12736 95915 6740 23929 27779 76203 66225 417 16604 45416 43471 25550 23985 29745 58914 85903 62130 52783 2885 91686 76009 61549 34857 60205 93645 80473 90247 44345 58583 65957 46053 81020 48371 89808 77275 1180 41029 38994 59699 50331 6939 70864 13739 48508 56235 67353 79113 86257 95833 36187 22313 99265 32771 25896 65507 64705 31917 39171 74657 60841 99964 40454 86922 46692 65597 48947 30022 37808 48141 17958 85105 345 21986 67535 84405 68691 44823 96155 48841 94809 42608 6983 14447 64373 524 91329 81817 9821 18353 21157 26022 64958 4683 90850 38972 51449 14581 87587 84669 84299 67521 88338 38773 31157 50742 12081 90055 10369 75613 35969 51381 528 68477 80875 46075 99156 15009 27465 88347 83141 56843 48517 27986 99593 52856 12018 58093 81281 74009 28385 85831 43053 65280 31101 5761 69100 80871 26265 28931 23349 28033 50281 63361 54702 44029 33237 23551 81509 25225 46275 68521 6692 56679 17081 66113 66749 8816 10905 91296 697 61530 77017 23345 48955 59089 35169 25049 93571 8037 84843 72292 13660 73061 24993 53853 20896 71377 73042 77369 23475 32425 49098 469 7283 90346 31534 18305 67694 17609 14875 68536 35020 83306 10198 14633 59389 33302 26272 52588 70250 92925 46945 84078 24647 22287 24625 77773 24272 34991 65054 63609 25445 14838 47855 29582 74775 10723 96501 95748 73873 71795 98559 70780 42516 92999 54065 3601 58829 92161 38129 83020 37158 92526 83934 52788 34009 42517 46079 41134 1101 30441 32595 27739 3129 32575 70323 21057 69644 78049 5745 85825 59222 93729 86734 3367 81217 35518 78555 52305 4249 3896 17377 57139 44342 47921 67913 62069 57681 53489 39164 71549 99137 59483 16485 35779 18514 33394 92161 46764 33054 71089 38073 85841 37341 70551 9620 69467 93985 71481 26837 45101 91723 70697 96827 99289 13977 51331 17008 7867 83506 74701 94049 89963 1500 43009 80577 65030 98332 65267 67341 28673 35948 6981 43981 37025 24569 219 77904 71525 96311 73929 98561 12777 93721 89909 47505 19004 35331 67624 49355 3621 10334 76629 82243 35987 66353 48379 63201 82315 23345 43571 97236 48903 8577 42438 26590 56663 49787 93529 31743 88159 92817 75301 72269 14618 95829 13522 94065 14342 11753 56955 82296 82645 69427 8443 32962 98530 56305 55265 34849 20053 57273 4748 60852 84226 7049 23047 94977 29685 55847 11 42396 6389 34216 98721 24561 12859 53209 81017 18839 12813 8257 36924 17075 6139 24097 66594 83101 30121 47807 22694 15112 11174 36063 19734 98527 60065 92677 41417 51137 39313 39871 70717 76791 86592 72575 83678 96020 78121 67485 28999 63005 96476 53333 36217 79225 24121 1561 49311 56981 38473 68877 8657 26093 79001 91860 23825 29066 57114 69281 99501 25983 21343 23424 4597 97453 91226 41673 45929 95305 90815 12380 86971 67671 78855 11315 91779 93259 23241 57877 75187 23477 77503 30931 56789 54951 52721 19769 75009 13557 75255 36551 79709 29996 30601 88037 56715 56805 36451 18929 82280 57289 43116 53825 30433 33032 89633 66069 88841 65601 45721 65569 94678 76519 81544 49149 66651 90621 26149 61338 87317 85735 53345 20377 56600 31411 89353 96349 89893 83111 60464 28286 85084 58626 59143 63244 63941 5077 11905 92533 89619 89209 25121 62244 9073 30521 89368 6990 31093 24199 2009 93156 6779 1532 83983 60641 36034 17841 19585 35041 64561 41443 12575 71105 61608 35213 17915 87669 31137 28685 99544 92023 45187 39748 19751 82373 61097 65841 90017 58513 33875 40289 79284 81924 53681 20621 46056 49469 35988 19739 85577 97589 69973 9353 50521 21143 66867 11038 91973 40189 81786 32589 55297 46553 61673 1057 53633 28861 83729 7681 80121 78145 42890 37067 41075 91848 18345 67783 59891 51255 27883 5403 36637 96353 94266 71036 82336 97301 45785 39566 37039 66310 99185 98189 44873 96933 1100 11010 62412 91459 92939 22880 17907 26775 49687 12099 38273 68225 72258 40833 27601 47109 53854 67172 45083 60789 21465 92005 63993 55649 22568 638 59037 8513 96401 62473 82291 79710 92650 24449 17353 15619 23349 11865 20941 1361 53313 77189 7957 88190 225 16949 47126 67105 90849 10101 67441 19706 54529 17385 31351 68507 22895 96473 58305 44533 15937 31657 44665 23327 56361 29885 12236 21524 82505 6817 88947 26333 44209 95521 84233 9081 85856 54465 70813 77729 40897 89841 17605 44807 26473 30875 4738 20354 4164 5697 1794 98387 48027 97585 83441 34104 54938 38998 13251 81751 92177 2696 60812 81689 50504 22688 32820 81111 60024 85517 77354 63337 89590 90621 75051 57821 22676 93694 46913 28498 13887 25928 18401 28657 64439 70863 85180 54512 67921 71541 727 26093 66841 96957 17012 83565 44400 5991 13713 92456 69149 25561 61677 24438 65069 29770 62717 85849 62113 32647 98686 54793 53651 47949 13857 80709 50405 30322 42689 11568 85017 82653 37969 87041 87428 49480 594 19908 22705 6893 5686 679 90426 27238 240 77028 75327 99454 67657 27761 76485 95585 46335 34301 61093 81979 54081 1345 72145 46576 58482 57751 99742 91610 67552 18601 71425 87249 30882 73537 71841 68829 22497 29049 96285 80537 68577 76397 15012 84219 33633 56941 20340 97301 20713 86268 58617 23166 75267 6779 64989 38853 5777 58729 87028 48801 98725 5879 82887 41693 14237 8073 56225 38691 4821 65468 94581 98767 58319 813 1725 9794 2949 61605 28009 75978 50036 98746 92399 60698 59862 48753 4026 13069 52405 44769 9761 14593 91456 45203 22213 47010 9965 52081 45235 15281 49323 6693 25585 63333 57829 52676 77470 5689 90929 37377 25121 58642 39385 71109 3741 95081 11053 73575 5145 34760 76620 66498 67933 57969 28473 75699 10881 42561 7643 74693 64973 98505 6529 12673 69853 34393 47475 87874 27553 84041 21833 71708 19181 54366 1271 73537 18809 10190 777 32073 18456 64956 47110 69068 95873 95039 6863 68584 77479 15052 20033 38399 88762 88780 4825 62377 50433 89188 28702 44928 6939 5003 3289 90678 40539 28913 21551 93541 48493 81323 79375 82001 9577 99249 23297 8965 50553 25684 98678 93187 85691 6319 8135 70197 42513 68275 16214 74270 53569 33082 37129 66514 29570 33163 88584 9774 36025 32528 42021 46351 94928 96715 79555 73625 80293 32707 37639 70890 71953 53327 40729 7149 32542 51598 74357 74149 3775 15558 96297 65052 74920 72970 40089 6910 95233 46840 90625 78919 2210 21621 60667 15089 74845 61881 94380 72659 32158 49526 36802 87585 8540 49359 48385 91213 15937 1458 73665 60209 34266 45453 8131 47977 46577 18049 26717 78398 56851 8291 75414 96315 33757 73917 67371 96801 87373 39637 82253 67452 92205 58216 53517 5171 62070 11007 93665 7447 50645 89147 34809 28421 23721 75557 51373 24151 48879 6989 61429 74273 87759 47541 96581 67211 29561 13051 59505 94473 87427 64901 83000 79665 3925 33087 21368 19187 22049 45921 61050 16154 58684 21713 98418 46889 20800 24357 47817 47467 39192 38193 62127 62721 63964 75801 84161 38679 83718 37121 93493 34 140 9369 4681 43672 14621 25040 22413 37737 67339 77677 39293 58295 74177 87778 45000 36076 74837 48142 69330 9805 97466 59858 93182 62105 64687 81776 86397 84953 28642 61833 17661 5177 48308 87241 27490 11311 1071 22190 62205 76800 29843 58413 35190 26693 28580 50885 33361 56249 88337 18616 36305 99617 53043 39433 47457 13859 80993 273 80479 41677 2903 9743 75203 81508 83942 93585 21489 78618 74297 22721 36905 62493 95090 41350 13387 21448 39582 60347 83425 76518 4477 7175 9005 85473 63377 76553 89433 21264 74838 21041 76122 86227 52435 31561 56281 49505 67640 47817 67120 98945 97553 40855 56502 79231 41597 74799 44704 15741 67349 86017 92913 51926 7409 49196 39360 86219 6579 23411 40431 53449 87054 7569 7327 1406 87371 63064 8233 88997 63035 44512 73043 74341 91119 73433 31064 42905 24653 47265 51995 85167 57971 53634 73025 1297 27089 18617 8961 97326 53509 81640 85473 55680 35759 9682 46418 65785 65223 17997 21707 25187 70789 90832 93062 41529 8778 29433 42546 57995 36025 14401 76994 90713 9349 4807 72305 96979 88164 90959 73998 14853 55065 217 18317 80476 63293 94497 31373 99217 46181 48831 82039 50161 53823 24599 83453 2587 3203 60837 52289 54040 1153 78645 79751 82129 81439 14985 25185 7257 85406 84705 22703 12297 31594 21981 80807 47695 7977 54833 34881 25939 31415 40675 52038 92415 69407 58526 24153 59973 24273 7435 56501 11073 59153 45785 96309 66663 41376 21681 95411 3298 44885 59863 34081 88812 67233 93233 47025 40313 80997 11225 38849 12489 88419 24618 69723 88537 94267 49425 43769 1206 20232 34987 90843 24779 30232 14997 92020 93203 19544 33139 69391 76389 1441 68374 92788 46721 21127 32001 33074 87636 3849 76193 21045 19897 94000 80859 41495 23127 48775 4483 25007 27223 1937 15411 69615 37137 87755 3563 71781 80549 45269 43273 2858 84754 67091 81793 48117 75521 86617 59619 40889 71019 12785 82490 93589 20976 95929 41710 59457 77665 33296 30313 85112 97953 38989 5865 46998 14681 21339 41697 7166 51885 10929 87481 98181 84118 80245 5783 79943 30111 79129 75710 38915 13563 49359 26187 43209 21229 17137 33023 1785 88129 96381 75361 31809 18687 47589 48095 3624 84502 4609 74162 20610 83760 83463 68878 10039 40503 80075 83909 50653 59472 27173 16653 69472 64093 91729 84248 20348 74556 79297 84546 99743 68435 81119 35653 64275 44583 96383 75621 55865 68545 91569 23265 86485 27734 2617 6850 58379 86451 99089 72591 81579 15320 623 82707 1449 23489 98332 7785 27754 96938 52559 77281 95049 955 28993 21118 78825 1809 92072 58052 66661 63585 32249 2735 88709 53539 88897 19074 33409 80615 50673 31129 78513 87689 78469 99009 44929 6305 58778 74487 93329 71049 61267 73892 27821 55766 36498 76321 69120 57338 84282 99165 74827 23713 71726 66048 39005 93753 36131 41286 1313 39553 82961 87889 27449 20623 48441 56561 28250 3214 6569 39535 23787 3609 88569 49085 68737 56430 99205 22665 66335 70487 27489 36577 63152 48983 61528 15041 16935 99437 5660 73253 98075 45655 24953 69449 94688 58033 60275 30786 2661 20519 14369 92675 3581 18677 48779 76416 28747 26228 83369 67367 12663 58207 6121 84935 11520 14490 20721 9097 27565 97220 73082 35353 99898 3717 13871 14962 58425 43813 66063 29505 32901 78257 87140 52585 5785 10948 28493 90205 51374 85690 89086 82649 43259 25253 71066 48337 85239 15953 46469 32067 76539 26129 65191 92011 80828 62349 26062 82417 3673 52136 97833 95169 56098 14441 76002 72511 70513 97845 88529 64113 22771 50707 23009 59377 91361 1105 20473 34811 93043 1739 69962 79881 81889 49691 79823 35654 79658 42349 92811 19981 9601 47801 83841 38807 39489 56587 10693 76353 85159 35289 10273 30793 47261 33609 43453 42451 62009 65081 37899 83681 15152 74905 75080 86283 2977 22223 3009 19875 30959 74205 45228 69486 53690 22209 57353 47713 31800 42825 30499 27841 76155 28533 70693 91529 88695 58974 55846 98341 63925 20929 56225 57668 52793 62563 15051 37634 21209 8556 41985 1989 88778 93041 69117 35704 31750 30355 6849 83737 63687 61511 47969 97947 41261 7143 54073 96657 44086 61529 83765 53439 4081 33911 62864 52090 3943 48985 27849 97268 60381 46465 32177 12653 16453 17819 15605 15601 50672 68777 3603 71200 27851 52207 24005 36561 79689 63377 35851 86679 16857 50945 66381 19663 49922 53812 30261 48517 91441 43680 2508 28655 7956 39645 38709 43938 56023 11583 15733 2611 52186 45855 76025 18435 53825 35989 39222 86182 62947 96485 44597 24285 1621 21750 35541 58539 22590 19137 64316 79294 65238 7113 70995 9970 12833 82851 42058 55523 27196 37473 59804 86127 12401 88061 46215 96699 14633 35029 78387 52313 4643 55949 25111 27876 47813 96163 81412 54337 679 1485 66405 68207 45731 21837 90065 43936 7995 35715 91011 15588 85341 63219 48163 43859 47693 61713 71342 11777 29022 60812 12001 92321 48209 45741 8042 65777 23295 47173 99641 47977 19702 55333 39652 73765 4547 76007 1813 11979 51633 15122 43901 48401 31829 30643 39795 79765 63721 70658 18787 26491 97787 31165 59660 36241 78487 4544 49453 91714 36613 24429 51425 47372 92613 1914 84516 50493 28145 7308 76814 23674 6540 46149 91723 53467 56029 88784 51256 80686 96886 53383 37449 29705 97479 15425 43003 2336 10055 19772 66208 42916 7707 65983 62697 20645 14225 61804 39602 99361 56248 17849 81569 79825 75523 43637 23349 89989 30752 45295 89841 66593 4085 1673 15284 37125 85119 85541 20618 44992 22479 85408 24521 67469 92673 6473 20810 37277 79941 37044 15078 67444 98657 5489 94174 73664 3933 76554 68284 59563 8785 13439 73561 43954 83382 2765 14144 95390 37353 17841 90177 25249 69938 51456 31007 3208 95565 94401 55392 77821 79037 81217 63903 66969 96125 94425 88209 9993 59372 71532 37193 90539 23185 61742 58779 41890 14805 54825 60910 18831 88201 8012 67081 51063 52812 88209 70705 68655 52889 6828 95901 22461 5431 26414 91071 52089 73747 56985 15274 70817 15673 56568 26783 26169 79941 7664 43715 44801 93261 74901 47924 3441 55572 25640 50381 64277 65058 1859 93 84599 9261 54117 81033 27567 89417 88871 29404 25131 19082 87091 9 34911 31846 73275 51193 47576 93936 71808 91067 86432 22889 913 79349 98497 20807 15152 15357 82399 32193 16588 5857 98969 83105 94319 42943 12981 65995 66133 29856 78737 38505 98913 5185 70743 76 12809 48508 50585 40925 58766 30753 42847 91997 49271 22625 78604 33052 64451 50137 99285 58609 15630 96850 2221 67633 373 88711 49477 67295 87835 52185 19588 76151 71185 67469 1473 91061 94185 42207 25399 39049 39061 19195 15809 29575 66964 48755 31545 46201 95951 37492 81796 50898 24929 79441 59391 85481 69415 16253 89203 48465 13105 80825 36339 79255 15855 39381 98017 8609 87793 41945 14113 54293 28255 42245 55859 32953 9227 23471 33471 38257 47261 41473 39815 9565 61637 43535 84221 94793 71009 72445 21999 29473 39936 21645 47588 28295 79093 62322 69531 80905 22442 34722 43280 77433 64927 92209 53377 78387 81961 51485 75361 48685 18688 70779 65893 50229 40133 84637 77805 24722 78469 26994 18865 55273 40697 5035 19341 12155 19345 23014 36385 99995 87493 96795 9335 35817 99456 50517 80211 55906 95798 18529 21860 52186 48305 88161 85070 42301 16817 82537 78729 76602 9293 14622 17465 34192 94033 75528 95736 93033 16993 26922 55393 59165 49313 36217 28379 20631 32609 57313 78204 77281 59717 99418 66043 55542 44753 48109 57204 66049 56029 69792 87119 71186 6636 6126 41319 62817 10007 93576 40124 2137 30852 41186 80306 81423 58143 70204 37511 42705 1150 55640 44897 98813 83157 89613 3749 38177 367 17421 44781 91745 50649 23832 33058 36385 66249 34209 32631 5939 62983 53049 63799 66350 92217 86690 85110 25777 98011 91865 78589 83265 38549 55529 49053 30525 2657 25258 21751 98323 66115 22955 3259 5741 73561 43923 44319 38243 63932 19529 63369 63836 38687 59736 33805 11047 26345 63713 95904 71801 22817 88585 92197 50587 63940 60688 57277 96280 19717 23719 96031 5517 4405 2455 88625 11437 62649 69473 73245 7919 64480 93681 65924 57169 93618 49919 62749 89311 93754 5354 4433 71634 13213 41329 18759 9442 3361 5796 49215 53764 8925 4136 75777 12533 93345 39515 43785 51639 34717 58395 96166 32943 62781 49173 63297 56503 24583 41612 3537 75119 29683 46253 94779 70898 62775 65228 34715 59703 45893 90794 67353 18081 25029 42425 24596 56820 59513 12081 85898 40939 14445 91148 46861 84985 17225 65071 11406 78819 80225 80973 75655 40027 95793 10745 87405 40345 14593 58463 94425 39882 48294 97359 19165 85560 71279 47817 38129 48929 8601 37001 82094 26041 25241 26849 24769 55517 57711 58881 19447 44025 31057 35537 33105 46102 3546 72145 50297 59755 90106 72865 69153 75417 44419 76097 18681 3555 36567 50475 37400 61368 80755 7691 80725 57459 77377 3152 70353 10849 91162 56739 84161 32233 95111 8407 53733 87168 73482 6508 80314 61406 26233 92114 61836 49260 26433 96739 74233 56607 77217 31745 5015 24486 10875 29947 25231 28385 8353 18461 67647 90476 99537 75043 5711 30562 42129 71305 84353 27589 51649 27981 4263 87942 14107 12401 6467 66701 21633 50929 40747 20324 43379 94729 59337 28026 77283 58132 46530 65745 68921 78435 27041 33626 31217 24151 33821 19969 64153 34968 77661 62145 3079 1255 7657 44785 8728 87265 99677 82233 60641 92567 83233 25679 4818 78308 8633 49656 47133 66563 6741 67584 53307 65647 18633 98981 22208 37403 48707 20795 23251 60289 11993 29777 30543 60049 79433 85006 54383 98970 92961 53293 51029 81633 27371 19013 66091 50752 69761 98259 56161 25325 63833 18131 5055 6977 58541 71717 83651 76111 78107 5599 16166 77982 97329 54865 89831 41923 65569 23932 25944 75013 17755 61287 71547 79213 20512 39053 66397 50106 18353 90625 11907 8280 25527 17199 39790 97205 5113 87329 63374 54412 38137 52421 34833 55013 16843 70109 5471 37194 86884 85954 71738 40154 22747 76737 96097 33819 23378 40613 28830 58585 49121 41873 91585 4328 1173 93273 43641 56265 11605 92367 57329 7269 99765 3395 71255 3251 69781 48876 89257 60058 55684 10625 15921 70822 2465 72398 17856 90273 82635 2013 27803 95687 47072 28941 25579 42593 60007 66593 63123 35575 57282 75105 97 17697 44361 72413 4194 60333 99941 28200 70959 18108 91494 26487 44186 69411 62579 36006 62497 31845 93850 73488 75637 77941 16845 56035 623 98615 89449 71961 32381 54903 92120 43037 65521 80583 89253 89725 22099 23183 53179 473 21259 20789 46713 13285 87081 42674 93341 91051 38707 98679 96341 49238 35020 25185 38009 1793 71681 21245 16874 42711 71901 71007 18897 93207 48291 49145 65541 83217 69556 36193 49618 33123 57317 40800 35816 41781 78981 10575 54261 34281 91806 59307 51659 51051 61627 84359 6864 25401 79142 55621 19341 36825 33641 54521 93537 76348 34025 34883 24043 11895 47015 31720 9043 36515 98384 65765 40192 74985 42522 65103 11019 37363 55223 57691 6685 90289 4152 14783 32758 30017 74963 19437 88761 50447 10999 56227 34039 30095 32461 47223 72804 7728 28711 38286 97238 55839 92360 71085 84680 76844 77337 3481 62730 8089 63843 45862 51472 16685 46941 83338 63505 11233 63957 89345 52365 42787 13796 39449 71777 76794 41998 86400 11412 38413 4111 86561 57735 86121 12897 8123 74441 16323 72718 59682 9352 47153 92926 41429 33121 95862 97923 1973 30100 23338 90075 77409 96890 27793 79200 57342 36917 58990 55629 23460 97 13313 5975 5665 65288 96458 32225 91901 70685 96506 70945 89229 39320 49783 42591 3009 76117 64561 58294 61849 62463 42791 56384 70366 84482 76161 8718 95684 53965 47537 58924 35861 48169 26073 89689 25579 29417 30562 92385 1562 72649 8860 56761 57901 86822 99009 13863 45325 65733 26577 65561 10659 73065 79049 26119 98113 48420 97001 30009 46983 87097 66656 697 73953 76502 86261 96664 14985 56961 48955 12591 71001 91012 44258 9085 72993 84593 17598 30193 60881 3289 83071 90881 79393 59614 80417 81788 9746 50093 39692 27967 44413 52285 51937 66985 53815 73577 92651 80821 99777 17351 56117 6243 84141 74369 19300 19929 53854 99372 50918 29513 89275 14805 5911 78105 94975 3027 87249 9453 601 9939 43141 17121 42065 26480 13604 65997 81999 47030 78488 13202 45317 70693 64157 78125 32269 81867 55969 77127 32585 46547 58485 39566 90961 55091 48332 96230 10043 20961 62125 62157 4073 2603 51809 13111 601 37345 40941 24529 87857 43437 63728 89717 1321 91658 57379 94269 5445 27064 95119 94625 25853 64049 79805 86497 80149 23373 91492 7014 62721 20857 4553 57589 33537 35785 32548 29562 21492 23828 361 44953 54067 23681 25095 66187 68977 38259 40263 12317 99783 44343 858 93929 82285 26529 97105 65157 13489 1805 65281 5209 91397 98285 41557 80857 94269 51399 60709 34690 5566 34955 66459 53256 65525 98222 46737 98561 36511 60253 54937 44829 98011 80049 76129 36237 73821 40415 88638 73761 15485 51064 17773 7549 51335 87596 50249 68619 5461 80619 66478 2022 12922 29281 72511 99937 42825 30867 6523 9525 69223 37636 53865 99463 33942 80541 54658 52905 97086 81535 46334 34233 56785 94957 64599 46569 27343 79505 12473 88745 3637 17652 25247 12956 98373 4409 63563 10801 84320 7421 11732 27185 30565 34684 96465 69499 32385 79883 23384 86977 68171 24835 30573 94045 57657 98523 9099 8040 62869 77146 71171 22571 46273 13419 25054 20925 67909 63959 62533 26835 88377 7460 10510 47209 53580 33604 68130 5933 33353 52289 77121 61651 77921 13288 73203 10084 51079 3105 88865 6665 60413 20392 84477 90961 85706 9169 92742 32865 48297 95101 83453 70805 1545 66337 89455 9229 21339 64708 43407 59837 97937 72625 28570 16530 25217 52001 80973 55825 86442 57431 75603 7296 92701 31023 9797 37564 93203 72977 85469 44913 87272 35521 21701 81265 17115 93103 76193 5831 73705 29565 64809 46712 85029 75745 52559 18927 65970 70979 1393 32035 69565 83033 48435 11921 94741 91014 57585 24749 83859 11257 95175 11473 35763 49986 28244 27074 46523 31696 93340 7313 98605 79263 4417 85425 82205 47319 87625 22735 87481 48632 3457 84512 34409 67924 37831 4061 75174 19365 66583 51791 69311 97729 3349 59395 35298 94369 67455 68942 29753 70673 52071 21609 26291 42546 41561 24721 55782 33209 76897 50927 10835 3934 58624 7232 57485 73967 18961 85723 48632 67939 7575 84211 65440 293 30133 94627 23267 14749 38273 38147 88639 84514 57114 1618 99809 18487 85062 2593 46227 35662 60166 85417 83657 49205 34181 21022 4833 42441 87073 14857 83293 63899 50407 33305 55702 22756 72945 93260 81089 90593 60681 35550 73830 77224 95305 9239 97119 12967 33852 38374 85366 99241 23901 26903 24897 42817 33499 73282 72264 91996 48809 21586 46590 82749 53720 2623 11700 16073 74225 69821 57797 6665 97262 39201 19051 88433 73869 41729 34575 81489 10509 50657 27984 35009 74266 66803 562 43385 49825 7937 75913 53173 31449 79960 99203 71181 7247 70422 38428 49023 61087 43604 53970 99563 20825 70441 20464 89228 28022 25935 13585 59789 48577 34785 38747 61980 38017 64761 47518 64097 16673 35958 25430 80463 53313 99011 21193 84211 50197 65097 82182 58447 79495 69693 71433 63577 56360 60187 73633 38561 61737 91054 28401 62533 1057 88159 40344 50971 87151 28010 6181 12717 45034 53517 77187 19417 21057 58725 68638 66968 80773 75737 86485 81052 9434 62495 47781 79589 53541 87649 47277 90919 54332 77849 4454 42946 67265 69073 12175 48689 25121 59965 71891 70622 53785 25349 70024 46066 86835 90051 13293 42073 63515 33106 97051 10803 9569 51700 76113 74524 77486 46737 31544 88881 76289 83025 9692 54597 22508 61490 61966 31385 97789 65009 28260 42361 5686 81817 68537 37985 25961 66819 27668 54561 12065 98459 81029 23243 60033 20453 22670 61239 67497 71474 59421 16641 83215 76591 73509 53994 78350 1130 97944 50080 13199 38273 81432 94084 4775 50495 48989 21835 75109 63258 2113 33941 46113 59593 17696 3265 44092 63593 15519 34705 37401 2988 38820 40941 73941 31485 12392 4750 5915 10283 6485 89162 82169 11297 98549 79960 40711 99822 48985 30158 97057 2901 68499 68619 95473 89449 95602 4899 73984 69963 29873 51566 76870 52233 70233 57566 89838 49296 64337 40441 42031 65842 5324 69864 70359 29185 62837 24553 74272 96689 80705 20559 37443 56582 82893 91858 40337 7265 88268 20020 97025 39968 54169 58421 79162 27433 24183 60942 21755 62141 35070 34033 80305 22927 47160 50497 14308 92900 70613 34280 90817 78427 44865 98155 85989 79861 71969 74171 87734 20241 11533 30240 96785 81437 12525 16223 30877 78611 61979 96337 6197 71725 45079 98659 53667 45432 8399 13904 85611 36444 7634 87937 64868 84033 90054 78938 11733 55775 17225 50487 10041 90429 28893 60605 81357 1229 65118 75977 24775 55341 60451 74053 88055 79889 60787 55513 77893 59283 7029 3137 53021 6137 17463 97425 26996 78765 80746 55627 47225 54585 7083 1950 50826 79603 85697 55514 95360 24969 65703 99271 83217 51492 39789 42625 4771 66179 79295 88293 7137 74833 82857 50241 22492 54714 24561 14261 79689 57627 55773 37735 66217 1973 46613 10020 64105 42363 68901 1162 9405 77945 14067 73558 42955 41699 1315 23513 40921 69865 71364 90322 31450 93783 25468 73269 7751 23723 55133 58275 72981 40478 54798 39147 95796 28711 3106 44426 27157 6211 20841 39039 31457 90287 10726 94497 36929 16457 18264 89399 53633 45417 39419 7821 20498 77859 16939 34689 19155 27002 16049 20557 77136 68376 3817 80299 20310 74409 12307 78067 12040 32884 45213 47510 95367 82972 60449 81263 53089 74712 95855 54881 36472 45541 43810 40685 58286 81348 16097 50679 48449 60253 53999 34203 29101 10825 59625 62997 8127 89733 53865 8764 21121 29847 28726 83118 38713 22782 36570 25089 79523 9371 60843 72253 88289 9285 74504 17325 82113 91137 50499 18070 2126 79969 12265 69641 53173 5793 49773 83595 87784 78778 88741 99622 58819 53369 54921 52429 80326 42158 9121 51055 77135 11187 35785 43037 199 52897 88833 70889 53839 54971 91053 43981 72227 11197 12282 80345 74233 7142 10057 93668 41209 66577 62167 26735 60113 48614 96491 52550 5588 43409 3995 26855 17752 34881 75195 97187 67445 60165 3706 19825 24693 23741 86194 37169 58562 27647 54072 38401 31076 5567 15729 31820 75329 66341 81873 56835 35502 15297 91499 15 32477 66467 33017 47753 4424 30109 94359 93929 4208 80159 15969 67801 38065 32873 47985 56903 50753 88317 42505 68321 53203 50137 63844 53289 65582 79233 88577 65855 68339 35618 44788 8097 51609 12865 35899 42266 92073 43771 47757 27008 67099 86511 27287 86177 34873 51895 34966 59468 260 79041 67629 63843 58543 19651 98740 80145 36401 76889 75674 24599 29409 44354 34024 25832 78356 67419 8269 72826 49171 93063 4247 117 32284 8263 77239 75277 4739 68237 83423 74977 28033 42139 84919 18601 54703 58677 17878 75701 11950 85954 30883 34858 58262 18933 78231 58475 2081 45877 11881 30775 45745 24725 34676 82278 52023 2151 91629 11467 48187 1649 94443 91683 2298 25825 42785 10561 94491 56495 97573 83816 83409 21647 81781 38813 87027 62449 74029 9016 13397 30733 80481 1349 90299 15889 82173 36852 34587 71896 36145 2497 79529 97997 90924 1104 58498 63189 35017 87880 86682 69889 99968 92157 61208 63337 18513 37453 97729 89697 29793 76810 26977 26097 86567 39085 15713 69261 36289 58185 41345 39097 58191 45334 26143 14241 46006 25297 44689 19905 56161 68013 7769 51677 56555 84097 16278 98579 4073 76653 91616 6625 50192 91588 48531 66713 58825 42264 14848 66866 14444 62814 17409 29440 2801 42316 3355 24561 56313 74925 68600 40437 32469 40610 51613 39489 63477 14337 23658 34801 55151 64621 28817 73155 30525 86343 43234 57881 68330 99173 6694 90063 93662 22309 42537 43157 33205 71241 99733 60902 4965 93868 77791 37997 72597 61113 25937 50205 33927 12675 33663 75489 12761 58815 42145 8050 62769 94745 20996 84089 49049 13697 96549 61316 19427 86541 91616 48119 36746 95961 80955 33533 21441 58561 28672 34214 4943 5329 30402 68955 48473 46817 11329 57009 16829 72025 44992 9985 6114 12599 54733 42646 38319 31163 96950 24966 99617 37989 99326 36316 90115 85128 92783 35209 5343 65151 98189 6170 88407 50849 76311 79649 45349 90385 49781 10893 23353 95893 87989 78506 23489 18035 93565 37809 30009 69148 24375 80708 88855 78145 60178 10332 60869 43977 62275 74093 8433 54167 63426 86540 77029 20853 60017 84476 68469 21261 69713 44801 47753 46035 85917 29779 4081 39045 19684 74218 27685 30431 40273 27231 99899 11532 17932 93810 56435 88500 35505 85637 48783 33831 46085 58153 62796 29753 36510 81257 45406 39889 30673 13229 75907 387 7559 26290 7110 88407 36811 53301 39437 27601 69063 4351 88961 99715 69756 88610 85053 59885 96542 25692 15931 50427 16641 37304 58447 93713 7029 89537 34273 87187 35773 26381 36401 45313 85767 40574 96839 12800 32263 65987 99318 78735 91868 73229 11187 55283 25633 11615 54362 55455 74676 43985 16401 10997 59372 10241 50801 27873 45934 71021 97485 22245 2860 91341 95193 20563 1384 54859 49421 21948 9553 85910 66219 99517 82517 95922 28353 77665 53159 96949 47503 49537 95665 62833 311 19482 32733 1356 70627 77599 93909 67388 76849 71466 3375 34807 16564 85837 28361 22259 26338 14511 800 4270 48323 14952 42439 11565 96257 69737 52879 37509 47337 24707 82477 24204 18715 92537 91977 3201 82457 37261 2074 60352 43114 85199 96795 85031 58729 73601 35759 53227 25013 2518 75597 94616 20374 62113 70736 86119 95020 10464 49084 87775 40579 22998 16831 10207 1933 26846 80257 40433 61910 37246 16995 97101 26487 20457 34446 81625 88565 94789 85885 35491 90743 5838 63997 9113 80841 28315 5381 40457 81609 97977 78210 11717 83961 62979 63235 87513 92783 23969 14587 18315 22667 67859 38708 39427 21211 72344 91405 88680 63996 67057 13527 73563 13953 11830 32637 89021 16551 12677 71393 16569 3027 41421 74877 95480 29529 48193 89171 26451 81948 21543 7585 1800 57721 67313 90097 44230 58033 95053 99297 40383 89905 15099 38475 15733 61193 24593 785 99165 12666 75994 7580 15600 96023 69955 4833 93521 64141 91121 51794 13998 38879 58559 72185 54078 8339 17627 25514 20177 40374 31826 3722 3139 65065 6667 75095 70644 97419 22219 82687 45633 4231 80619 23645 69676 5323 98456 76271 9254 13409 26247 83921 4351 87735 28559 20481 33919 53957 8433 91611 84513 92720 32659 78433 97582 21295 73924 40713 87113 1809 85430 45153 80005 42195 56036 30044 93601 47177 57533 69393 48852 28705 66001 80827 9985 61039 27629 5349 92570 68011 20861 68903 61089 20835 48111 68465 3957 1931 94208 23101 72123 58561 29343 91911 33971 46863 75921 9871 39394 61151 54961 13037 20993 15961 94531 75981 2909 27957 42911 96444 52505 4705 94995 41315 12605 37839 29124 98338 63345 36318 61249 756 58753 14295 83738 16869 2134 11486 92045 9129 6953 86401 51609 24891 52199 45633 75221 85397 10577 49025 47479 2019 88387 78561 33042 35785 92097 2519 34446 69436 16779 67499 53457 43001 78249 12647 37265 85173 22421 51957 38250 41017 2248 61161 45409 35429 86457 28001 83673 30968 49231 37707 70753 92277 9127 97526 35512 48527 60369 84973 38173 68353 35787 49233 45129 27160 49721 88477 18333 79841 96793 75957 90449 69220 2163 82196 67733 36225 2145 61373 97503 32045 95902 29375 53369 52732 70863 84673 13649 23022 63948 60167 49969 19888 31147 31702 44808 12661 26571 42643 12856 82327 51295 83207 10533 4397 97893 5810 76285 5940 50685 54953 31714 1679 60124 86755 83778 8813 16725 15333 89741 35039 44831 25877 51841 24475 67753 89971 75857 36516 69521 57665 24833 53003 58853 37681 29083 657 36423 30712 37056 20424 50784 89035 83942 25711 50312 76451 13387 72985 11867 90491 53748 37787 26753 49732 54041 24995 78862 44351 74419 61039 89087 32913 93681 94435 47799 15953 45665 7097 25761 52409 97857 66869 51591 2666 11287 56633 18305 3079 67935 52625 23631 22074 74505 98516 48157 69581 27057 47489 95729 9189 63231 65625 90941 4581 80975 18893 529 48347 81133 50667 85529 91761 5647 49115 85547 4959 79361 99070 8325 35398 21037 49027 31777 80525 25554 53221 12077 63083 48610 14709 7414 28049 17939 5460 69373 14857 40633 31231 59505 92355 44015 32641 50037 79169 86678 1546 80334 5867 82359 40946 13593 98812 68679 38088 44304 93891 52265 69101 57476 84563 18501 1971 90756 32165 34048 93441 90621 86808 74823 84345 14379 40625 23092 75901 73632 59119 25713 74825 92609 56723 48900 6467 99728 63255 54745 92223 30857 69181 58373 21039 75811 79845 84946 83971 72129 83393 68681 10473 6590 10781 82133 74669 48959 59426 67089 90433 78461 57719 52605 25251 73469 35697 45623 36540 65625 35540 15018 67388 98297 14855 2016 67177 65233 17087 80879 98981 85971 98794 45371 45485 34705 43035 2993 56457 94844 25105 77025 79547 67674 89231 67961 13643 67387 58945 27053 74782 27770 87072 69177 99334 6771 2433 96143 17041 37889 8820 9330 2979 11889 89809 53409 88777 12997 92392 84849 47839 73031 3692 45493 18459 83583 16531 58320 65719 65765 34107 68553 14325 44285 32811 73211 85247 25389 89249 75407 36193 78049 41489 46569 22518 96229 13516 77051 1729 22949 7838 82369 38133 66247 12175 94211 92737 68045 92131 38010 30411 11305 29875 31231 41355 85845 51061 46617 52189 95841 71510 61289 17081 57601 8641 70817 47281 29535 80913 12252 13647 67632 71429 34789 65040 7579 4017 1609 2523 5338 34167 22617 71956 60532 71894 10950 26624 72459 69871 99521 24615 72549 43041 54403 56507 78828 90029 67225 24537 83112 69615 6551 97137 56633 73084 87291 48015 62133 31841 42705 75962 43528 13680 98560 96429 38329 20634 98723 49778 23433 72057 60535 31517 13131 96385 76683 91657 17375 39896 36605 76908 73583 77829 5513 60649 44469 57361 55152 15010 32041 1329 36033 55638 19409 81897 63617 45619 42010 81257 60161 97405 30352 13225 74227 77577 7897 57393 3881 2819 20593 38099 93214 67573 15286 7425 28423 72379 92577 18353 8048 86281 45027 37085 67518 97141 4001 54144 45601 21331 84967 19565 74415 66764 40554 67000 75817 88645 91821 71713 9286 31355 93333 35883 17585 9083 70305 2349 33748 70211 22732 34285 59660 76551 25937 18455 46174 1018 17351 79911 23097 66654 22277 69903 26467 98275 86774 70969 54209 38005 37846 61806 5462 11761 94175 99415 96960 16265 83565 18317 46207 77777 66165 72685 79969 12841 52737 84828 29315 1595 93284 89979 19274 1756 64409 40329 77155 89090 44975 69310 93582 65449 14503 11989 67276 53919 11149 91268 86727 67373 85513 1338 84083 24353 50718 71157 92321 76023 27440 42677 59984 74750 34993 38577 29291 95771 36015 58909 9663 86630 34381 18717 67053 52457 24417 58625 55127 53585 15881 99077 21939 34257 54661 76373 45431 65651 73612 18284 92259 96129 39659 41159 66945 3725 85169 7263 26657 21717 57203 58087 70611 39314 88874 28741 46674 55385 87622 47231 92533 77883 25917 19566 92321 57713 54305 36305 18145 25393 3417 91387 31269 72935 22745 25819 8724 33791 69173 87374 65089 64689 81212 10917 68882 5745 52597 40273 14418 89843 3189 15051 48887 76580 95443 89518 90963 9016 94432 5430 83403 66632 68987 38644 39699 93891 81597 83083 83073 51113 66841 82965 31489 82129 61241 22309 76686 15588 99870 50055 74727 83573 22484 97913 44401 23617 10988 72913 22814 41094 33957 36066 52086 68357 3656 26497 68609 45430 17657 70476 38241 32453 38573 36577 58720 7553 91317 48680 3485 97369 66977 62625 26353 53267 97984 56826 26401 13507 13549 4036 97140 55967 93900 74627 21099 84071 91923 16921 80311 52730 17531 84559 74001 15326 20316 87101 33853 89055 86714 44245 19285 37221 20617 35105 4012 58563 77897 20753 70021 48290 84883 35793 83091 38261 31265 91607 23414 24737 28985 37621 7975 78753 30182 4040 46145 73886 22156 69769 82444 79469 16513 91187 93105 25361 2497 45999 88509 45874 8037 29717 59280 24913 41764 21825 31901 15112 6505 89869 74623 63105 76227 78761 40736 19121 91541 11393 74944 15622 75008 99021 37573 43445 93311 86217 42457 17247 95938 37821 34939 51600 6793 72673 33685 75175 10747 30876 57823 51009 29403 46817 25057 26057 8011 96463 99158 20801 33951 77904 57975 17783 87673 21517 55866 90920 75999 99210 99627 1619 81448 31409 72285 72604 70867 92661 77160 92535 65182 34159 90572 98237 95649 78672 44257 75659 87413 64024 75361 16856 39673 88425 28223 99593 10911 86253 17283 47545 33249 17620 25059 3310 40647 18055 43653 61771 13297 97916 36705 27548 34422 90849 28287 8655 62425 47368 57785 56829 33423 3294 77641 50497 85678 83138 2413 43069 62921 64662 73306 79829 76068 53321 5270 41295 35639 42639 12205 48417 42293 92691 77777 22265 89531 82990 50285 58911 21291 44393 47409 71362 21313 84843 79622 66487 29029 22095 64093 8333 96051 35355 32133 99674 17977 33752 52753 11650 24365 70863 57177 96897 54861 10285 50082 77721 98992 56561 19944 74387 34617 39457 79005 65785 82440 53502 49129 23409 22845 54561 21773 19072 51912 78683 85118 4763 637 96541 46075 51797 78457 24835 9220 86031 30769 96895 47951 32729 60531 6546 22697 54004 34851 97451 33452 16932 26613 83187 39391 32980 95643 11249 43561 74669 29260 79681 98169 1329 50449 5729 34881 60625 82972 79714 36094 17827 42801 99073 22765 73336 56987 50061 35905 96556 95284 44621 11848 9089 50387 14273 81185 6893 18529 75989 63457 16928 11947 69280 31305 28731 16303 34257 90375 38731 98865 58155 16273 44749 11083 84005 53645 80243 90661 6129 93737 49652 540 13495 101 58565 67025 90214 43345 8777 81377 48280 30539 86707 3977 86102 36801 41403 31658 91869 1921 29647 96689 5137 5332 8010 33921 44113 88794 61379 29711 31730 21138 99525 27765 13497 34609 82460 57915 86503 877 5841 51757 11835 73830 5325 62217 3054 33739 64227 76459 74705 36788 79373 2051 91077 52557 72179 87497 51188 46753 38427 94754 83957 33542 49133 42190 94145 92606 61851 96567 95558 84289 7401 68601 20349 48577 4631 38005 16665 1095 33943 87507 80643 23321 6799 28851 82961 17887 61663 59085 42605 17987 25833 63497 1099 77960 8767 33025 54875 16915 27668 94320 80577 68763 91976 66308 43034 83936 1817 73500 56729 22070 90936 91789 93254 36978 71527 75156 9810 70479 48901 77169 49705 60945 18789 4569 89921 52857 87508 65381 86501 57985 89967 42205 181 41393 14111 22808 50853 96935 41532 34552 83113 89630 45273 87737 60561 16422 50645 55347 22155 16001 61809 49518 88038 38601 27239 48222 53269 1327 24004 7213 45200 90911 91607 12974 59537 31137 93104 633 15863 73381 69421 46289 44557 22649 36235 16705 89769 63805 29575 26085 29430 92196 48776 88355 24374 36005 60907 93172 57798 14600 38809 51593 14349 49225 84637 6125 53170 91045 24289 25792 77213 92771 20703 69911 81452 80935 1770 33489 48666 52353 39321 83011 4929 33249 66073 86491 39914 80835 86561 26296 90317 78245 66513 73021 26435 80583 25277 1057 23903 43639 66965 66512 73001 66847 13594 34665 31025 61443 78263 67573 18643 77726 56737 11713 79121 96553 7594 17618 88671 30847 95393 82884 80183 2319 17976 2151 10472 29141 48767 3109 79452 50601 40791 97929 8577 49697 64713 52392 43279 30748 63240 19057 92397 47675 48241 62851 66253 12541 2329 72008 25897 77961 88227 46769 12273 30879 67471 5668 79853 75245 16249 12451 98221 57205 45263 31476 13249 68402 11121 58259 98329 74853 28892 92786 35289 93479 41641 44132 17409 12867 74185 55177 79054 32894 80149 69621 11467 92751 76225 70642 39359 7520 27177 48291 83337 23177 4996 69781 67819 3833 78084 13026 22794 32305 24157 35401 32449 35707 21308 97028 78029 65736 70638 91579 94065 87464 50215 42681 96678 2051 5393 48914 56611 22657 40129 72335 18762 54629 98310 77419 58610 41325 16289 83533 63821 40298 71009 96614 36945 25697 53758 55055 2931 46641 44833 17457 19825 23952 2377 42621 94289 20797 33295 99237 11147 37185 23331 92931 276 8465 70462 38091 38059 7921 71053 15228 19645 44813 91323 61719 53464 84270 6663 78824 5862 89326 73951 31477 21593 36260 54905 35710 91813 82265 45509 70452 74807 64405 80768 34625 69228 29293 65644 37246 24265 79944 60495 69401 14746 85409 86941 18245 36649 61579 39505 12267 53949 7513 42565 65736 8975 981 33796 28597 22209 86908 78529 86907 38117 5873 68353 61265 84385 77737 13549 88289 42019 42945 33733 43005 49953 25665 57402 71715 27341 50069 75863 45604 13423 36414 38923 56578 79299 64942 77835 30911 79187 78371 93987 31590 88647 95662 7899 41707 67573 45401 68347 10306 24329 97516 15961 93376 77781 9569 91219 82633 80826 52273 67929 30375 11893 34269 12983 49138 32217 37377 99849 89425 86607 34925 58627 5757 81943 17845 27525 26217 67261 41569 53877 52289 22407 92565 6289 26984 53148 42993 77429 7931 85623 37793 61537 4725 1537 40247 97923 870 93349 44946 24753 15296 24431 45761 81489 29349 44519 94899 44303 75693 12249 53585 23249 95345 86517 65745 51597 961 62049 36754 94147 74977 70335 43324 48981 81945 50117 65279 17655 15873 16711 78705 31519 20140 76160 1053 8189 52419 83895 89587 92815 55295 81654 76118 22483 23462 58849 20733 37239 81210 81617 92427 4746 97057 67633 70564 77333 99658 17903 31216 14229 21441 51305 16422 46367 26317 14711 37769 6319 32087 76837 94955 98263 91864 40523 4133 73753 10941 14797 65431 5025 60875 82926 88920 41729 99817 53093 86305 98521 96229 66065 96696 72073 21561 4162 33067 58585 97705 94553 8158 92187 31563 26131 29029 3254 74173 77681 75293 52685 75291 21349 67693 81574 95789 71216 93770 61443 59081 70823 59651 22557 47728 60719 42090 3653 97241 13749 33137 16340 19699 84637 59187 94761 16801 98785 94385 9153 96643 51492 68187 53965 49348 66256 77399 95329 12689 22035 28279 36839 80362 33593 6716 65220 50727 93399 40088 52848 23217 90177 84761 81473 63843 44260 39573 62595 11289 40640 79221 87528 7385 34468 18437 31601 28657 63957 81357 77228 40515 53059 79013 14201 24332 40209 46433 749 4817 62478 30232 15521 38656 18689 96125 3455 87 62865 72693 70013 7015 55369 33994 92761 51918 17784 96357 42006 44146 99458 11375 29573 80052 49393 45273 70763 37414 41485 26025 21619 47331 1127 24267 63857 32129 93790 96289 25165 23087 95757 63471 25615 44763 23555 11185 25798 48165 28153 53333 52129 33397 50009 28828 7171 30289 54240 78165 14073 74986 50743 11441 43924 9853 59225 49135 80650 82317 77849 40949 285 31497 22733 75552 537 60465 8811 19901 42114 64262 87983 55225 38089 23275 79857 23357 68751 55586 77781 51765 52989 10597 76657 2447 94510 9183 8493 88823 28005 88495 57807 4361 12509 82950 82351 13245 8513 86337 90442 39304 31473 66009 55551 98140 43617 59476 54113 47589 11303 29267 52777 76388 9334 90603 25684 61113 16858 31542 98931 51590 78927 36347 87266 37649 57231 92353 38753 93956 36313 46449 26381 32705 55308 71347 57845 43558 14004 7896 95519 44359 27999 99965 3716 78541 54401 80063 32541 66855 28389 38473 17686 88673 6826 30556 5142 92722 57939 71137 98080 11255 23655 7863 87897 37853 80929 41959 26417 71341 22224 62805 65315 28346 83381 1576 25625 53128 86827 72804 34352 94343 5758 76850 65693 49630 65201 95367 28608 62218 20064 47881 29731 7081 66165 48349 46575 34954 57797 40187 29729 64300 44907 55105 50737 54109 19145 99837 84693 65563 56323 68424 33327 61811 60033 55952 85345 18985 67662 51001 31377 99537 83630 38629 22673 42223 70463 2325 63927 35617 17568 58367 77121 76665 38149 23585 47644 71421 10613 10015 46689 53025 20077 59413 9636 57015 73711 25918 16850 89664 71731 11435 349 56905 25127 98325 2946 37696 56389 53364 71589 80266 14645 22348 49656 39265 84401 71316 87985 75725 22316 82737 25836 68435 76161 65595 65754 65550 70161 58096 7207 78403 1476 71559 5935 7721 43223 73219 25697 97739 38625 91321 45409 39553 95655 26923 34935 35385 26907 59469 29365 96389 19982 54447 61569 65594 80097 92441 91585 648 59635 36125 18501 56433 90246 79297 36833 29586 77112 15944 8827 48747 76225 76201 3401 99320 10121 83501 26211 62391 87473 15294 88053 37457 10272 58090 79151 46931 34823 81645 90710 66142 3553 40985 20841 1389 37348 2525 85615 29009 91121 77695 77439 77591 18239 75685 22823 12671 50535 10785 94409 96829 1139 3469 93661 68146 43121 47583 73493 59952 84577 81777 67105 64930 55685 37163 78493 28559 44643 75656 92831 11718 50800 43953 52343 56657 73241 62951 56769 899 1151 46193 26980 2241 37705 87661 22272 6969 10031 56204 73910 11890 60686 11455 28297 88851 45409 12481 50145 95742 99693 7689 37457 70705 17543 33605 73760 53881 33184 42398 16491 52406 47441 43382 13 66229 83621 15303 22305 20950 45906 18955 30651 72513 20789 90761 97582 98805 54079 19337 32697 40027 51243 17861 90513 66264 97275 70121 3059 52569 87654 72105 64177 76593 23961 89711 13337 85032 27837 15913 23205 74584 4687 39440 683 97615 63351 96089 48405 8785 32775 76317 86601 23101 69197 34311 51718 76238 34690 81365 59471 41341 4443 37651 87841 44301 99653 63977 125 42665 87189 85636 62050 43203 75785 65633 90832 65671 78855 83563 44601 99305 15523 77795 79203 14803 9861 17653 81588 15543 75643 83129 20888 31532 68463 92307 44705 50433 57351 82177 67328 90561 30625 62745 52516 51138 77299 74533 33288 30553 77293 31831 83163 20229 79513 68004 65959 90689 63779 60412 83570 29250 67693 33365 4870 33207 4801 48505 63110 59169 42241 42601 23659 14433 76481 16713 68133 94611 35134 77973 46235 49134 56761 43879 93609 90449 18365 46561 222 20665 67123 56985 22449 83565 7760 9876 13183 83800 94257 82909 14953 43675 80685 9857 12953 30078 3369 37199 82177 12914 60813 54085 69315 21375 52803 22595 76292 15617 24287 91741 16825 41785 74473 33379 82792 42662 85589 52573 21948 742 32379 41680 44153 29716 82019 32827 71497 78047 15306 61970 43331 669 75757 77697 52370 8743 27985 53606 29690 53145 3153 44221 15019 91845 6113 17938 84456 22185 20720 2408 35099 55873 19601 48889 95076 58865 67265 54275 29641 20409 33598 38974 2760 2056 30389 32701 91824 61897 66181 88955 5114 16571 58100 80161 44068 93589 86615 12432 58905 43457 73015 85275 27787 60625 55846 82049 77121 13337 42769 57051 571 39181 74619 93485 72059 55545 97315 32781 20743 18869 24134 7905 86815 29993 30867 35257 19129 80672 67329 53923 62879 13474 58337 3181 20116 29721 88075 76063 23498 58373 72768 72719 78497 56923 82361 47436 98851 12145 21103 7753 59187 28521 86657 27645 91056 65302 49706 82329 68163 63111 28631 31737 4805 53109 44664 3265 96313 24521 30145 34863 38273 77940 55932 34489 21415 58196 17209 28449 15976 14874 64577 32276 81824 92961 85485 80843 98805 72541 28921 34786 79589 27649 14769 77185 98951 54703 28341 67052 48673 84009 99269 18652 2465 3327 83721 83753 95208 89837 91703 5608 58993 81217 94963 71265 20593 94980 54169 73738 95437 5243 77680 80625 35523 79697 64131 15517 95929 87297 96534 14237 40415 3954 72609 40523 88673 58187 95318 76477 26901 20521 16803 73817 97700 19275 72897 75198 68105 99161 23368 58761 20989 70033 39361 81285 35849 62537 9589 1507 61275 50305 27089 12657 67790 49099 72221 1374 2371 311 52321 26206 56016 77915 74625 3479 14785 98759 87699 6305 36745 65505 85995 51345 17172 87686 15663 11389 46003 76381 1569 30169 93606 59769 22105 75875 82625 5713 14769 50191 9041 26120 54017 59127 66700 77160 22291 58907 56995 22593 31793 48993 80219 3723 52501 67687 18581 45781 6199 62078 56170 62327 23949 94719 5001 76061 77952 58217 3089 20013 6535 81745 59438 11176 45690 42231 51199 29247 68273 10903 47834 1925 84409 78116 23007 81999 70740 94013 35023 33732 54286 50873 17043 86763 61061 84528 59627 39764 15073 59173 69429 10645 9659 38411 27113 49020 99313 25993 71023 57673 49182 61653 30369 1007 95197 82065 96305 84457 15107 41641 53729 96595 33909 99223 92581 22343 32099 60561 9959 7194 18929 86186 70536 66785 77377 51053 55909 75313 46225 69211 65004 71829 3521 30701 99788 18321 70378 15421 91808 99061 47614 22131 45313 96056 85619 922 77801 70201 33351 25473 41649 67613 42747 34075 45833 50578 20523 58297 35339 30124 37155 1558 35979 46179 60887 79497 58821 67217 32518 42785 64536 87589 52965 9217 65532 52261 87688 41089 45201 71015 21323 26671 79877 99537 6982 88913 65697 52505 90902 16665 23645 22429 67095 32950 46355 4053 761 39009 85373 41876 17991 71885 3086 26554 89153 11826 56191 34487 51885 14961 11570 11760 49473 87521 94234 74561 58362 15683 94724 34125 39691 54753 51607 29276 18325 10329 20984 2069 99157 34435 62795 32207 55953 40596 79439 38849 52529 61778 12160 59700 51619 70133 6244 16377 2737 74634 25805 88129 61769 209 38929 96529 42003 90378 93484 59325 72973 87117 36093 74545 83747 73669 47965 78401 25829 3465 32873 33957 54758 36905 1837 41169 65911 90671 16270 19195 5336 70158 28696 69237 81593 2201 55063 20961 52331 22087 21703 73476 84089 53073 9423 66254 77341 72801 71313 50101 27365 60002 50134 11616 4858 92771 55584 89383 56372 75706 10225 40741 16477 64037 7116 42011 61970 47148 59073 80805 47344 9341 92285 72159 61289 57507 61075 47058 27257 8432 67139 32991 32878 86536 90581 75905 77392 65398 28401 57959 46941 64134 79789 63949 89046 10441 64399 82414 71164 73287 53751 148 60295 1960 1343 53674 47790 95413 20645 43001 11145 92831 83737 33011 64140 47149 38368 8609 33030 55987 44173 79065 33738 74927 12309 82526 70269 19686 16505 65262 19489 94263 4675 41671 11423 49620 61747 28873 91371 38909 52306 3406 93921 62697 29509 45255 40780 52157 18823 14149 74666 99265 12657 40833 55290 72682 22864 33412 14420 5233 48161 39483 93787 99569 95289 29889 50314 82969 59289 37885 99049 92171 981 74516 77753 42613 80193 56014 44949 60239 19665 47205 3025 14069 94449 6285 63144 1333 28718 32981 29476 1657 66137 99548 65788 10997 95761 40590 47813 7226 53709 22990 14681 54313 84977 51476 18784 99729 55985 67668 29124 92065 33409 91174 86863 44923 25411 42481 90081 59831 53061 54129 51301 4441 43168 68127 96577 45181 67201 83729 99953 34953 54901 21025 25340 99115 90217 28003 34994 54221 32573 2203 50156 62277 19319 42604 64128 5838 97889 74282 55981 17926 24801 88175 27409 1909 65121 57550 73765 42202 30981 40249 65257 47671 69473 15675 97433 73540 3193 8527 66088 52305 55717 8043 15341 29890 14050 58779 89703 39881 88521 6011 89517 43617 17243 24901 12235 20273 56655 42521 9501 45597 11739 94648 33085 62763 27261 17439 54337 70921 80029 73949 96781 99025 82641 37145 85263 12665 78589 93281 99649 8942 77290 94933 13705 68215 70001 55817 71975 10683 8649 37685 6031 23249 89724 26107 72751 24686 28318 68613 56300 5137 27625 37333 51596 1511 24413 73401 19015 25731 18630 28859 29279 35633 19525 88169 61961 53768 94101 47205 58654 9165 76723 84060 46271 81263 99395 70174 86106 69447 39393 1009 95497 82805 5686 6059 5270 75381 26489 55255 70013 37084 13682 15457 46101 43679 36495 3081 22326 19452 69562 6076 45202 65297 46302 73749 75941 61211 18264 53215 41243 78417 66757 87647 89685 37869 23953 4056 28393 44937 48157 14475 35291 24674 45393 13884 48083 3976 69616 51272 33489 18517 7515 77307 44177 85011 41032 95383 42429 69830 30339 5509 12668 45258 59009 89907 98368 74265 77053 45611 1011 71580 36075 36615 58653 68573 6929 86285 78973 42643 53937 26374 74716 57245 7861 46241 66267 63729 15547 89899 64939 89875 32972 71249 13073 6961 52081 50192 35993 6695 71995 35721 72326 22363 58624 44897 52347 50157 96440 82304 59567 14211 39881 1421 70317 26085 25307 43805 75283 87678 46045 83985 24775 73377 30497 77835 95873 27301 69505 56865 41908 43477 84697 46801 62827 8567 7343 5446 33236 9103 74377 26339 37179 83570 84598 24919 3151 9313 15707 13101 38017 93043 28019 89089 57125 4103 43287 86105 23768 50133 40069 57505 82425 58205 50589 50177 41541 73525 66069 77493 18421 71479 3881 43073 75343 3531 76683 98723 9248 56625 62332 25409 74419 63696 63715 33465 24436 94963 91054 43840 23021 14289 36093 87657 75421 8124 45377 61553 47546 61829 49867 72938 12183 60751 28225 25521 3093 50285 91897 22461 93517 76598 43783 77299 62123 18379 78907 93929 16625 58693 80651 11239 61847 36300 63775 69055 64273 89967 10115 33185 6619 76114 68237 86387 77165 81926 42549 33534 15761 99353 53317 33665 95593 12497 73249 81895 59749 34703 72691 4023 84997 82305 74737 45554 3887 24443 60793 63769 56152 51802 3854 12563 98833 5 13478 94047 90223 77055 78593 26227 92682 71489 64302 70017 90721 94795 10746 98649 96455 16591 74530 74083 20217 42025 41444 8071 9887 72318 81051 8812 81153 40933 89027 19917 26073 46061 64371 41255 86724 14475 22711 25841 43372 53153 17441 21981 52431 76874 91335 55033 24746 38004 17929 31201 22349 31829 15233 99101 70309 80075 23367 78568 21796 23731 11497 66838 23556 29925 1163 42259 12701 25569 17735 78771 60077 49200 20387 78365 32274 64549 43839 82339 43776 87329 95395 82356 64801 15034 92367 77069 30265 18668 48207 56465 16479 45415 60229 42163 8857 88045 5606 72993 98120 672 15231 73165 71429 5529 60762 86492 74339 15166 25693 6568 34401 45323 70737 19369 47245 67076 65509 16101 15171 66177 4689 58424 12265 86956 9477 64001 72687 26121 28665 9639 56660 85982 66001 84239 42439 17139 67401 28549 76338 36489 12425 98673 27503 94273 47669 47254 41202 78433 78983 4427 80806 65311 20098 525 87601 52649 1715 52257 86361 84136 75258 43517 76454 36194 37357 18315 84242 70574 60407 21811 21409 34665 76550 4209 16345 20611 24540 56759 22941 163 28401 13122 59927 89517 55745 78821 81137 81313 74962 9561 59997 84071 21402 2577 88129 56449 10657 52919 60950 15153 61339 38652 93400 79597 69793 2542 18931 54085 24603 98510 17069 14761 33749 35941 64315 34730 55260 42682 33590 27391 42525 76305 15065 88011 2145 21311 26652 12711 94185 7205 12747 86855 38041 99659 22543 74497 20441 62321 71811 43065 81745 2965 65524 80380 12689 85437 56961 707 43991 98507 45320 71101 21905 45717 72225 27127 35209 38236 18478 1751 50401 29905 10355 75849 29369 67365 47233 71466 38362 7329 30913 35854 50003 71888 11813 41159 76390 77639 85681 75558 78565 10721 90595 85669 38849 65883 64041 74863 56421 69657 45569 97645 7265 74801 39599 22817 78250 16273 91474 72769 8543 85337 9316 21363 59427 52567 37489 80689 70221 41869 6799 12291 93649 5415 2599 74173 16119 56173 88693 59105 27097 64053 79505 11194 9693 65690 44518 81737 68758 93899 58552 11981 21159 4833 83145 30405 23938 70387 11839 31569 99777 33361 19164 20431 41737 51201 31772 80403 47689 47989 87985 45329 30393 61331 84833 51883 35455 91177 25215 58705 30936 83829 981 94850 34631 41884 94505 30481 69729 93681 6307 26117 3927 28864 74618 77521 58056 68081 52406 63739 66136 41823 68741 90085 8481 19673 71165 77666 22588 85018 20721 96084 63354 14101 49373 23301 51471 39628 28263 43420 11585 63829 70865 44495 54137 65651 33387 14778 97298 83193 32241 68193 1177 53884 83132 74215 57701 83769 99721 76831 53105 55265 14037 98633 39779 30635 33252 35929 47497 2678 62849 15675 75033 5067 63789 98145 83731 29475 73186 22609 95647 78957 11921 54237 39177 85532 46633 94717 69941 63585 81327 71255 94125 5921 78905 945 89245 39637 80735 64389 86233 4574 35209 55489 65637 10955 94937 50145 90677 99191 68804 3327 76804 40393 28530 75107 24054 63621 34273 85777 60425 97145 7709 78561 65097 58619 6089 38692 72129 16188 38580 54089 37647 57834 56682 64641 28303 62257 43685 10137 25354 30953 11172 88603 54499 85288 85097 61241 3273 45866 56074 1877 12341 9173 73343 84833 24599 4965 34960 65712 87778 80548 44036 30489 77268 26886 57757 13673 63227 31161 40019 41905 88637 80202 50241 90329 45081 61736 95017 86180 5341 72080 26317 79471 86513 11318 84309 12027 88911 90337 99953 56247 16137 50045 99542 58411 68685 87714 40973 11082 68337 15469 85258 79042 9761 11840 74341 42879 24049 54389 8575 50647 60413 44321 81113 60052 3809 14433 23655 24335 65065 64285 2665 73817 81729 74505 1883 29883 69451 52459 29881 30683 29709 23686 90771 30703 90917 3425 62401 88401 59937 77729 24418 99521 65737 55300 6097 25370 56108 20729 36055 86177 31519 63919 91689 61775 16255 16096 49185 96476 82479 62226 71755 71171 9141 84285 40340 16539 13586 63105 44610 96543 92748 85095 90278 85306 23568 7457 36545 80437 47721 10052 17634 74713 15809 52867 58185 42241 29797 22887 21239 61251 65900 1207 5385 66321 51629 12705 36348 45777 74873 31689 5581 28035 62321 41885 89712 22689 44586 75958 65535 13547 55007 75878 98821 7851 92048 17958 23631 63447 66461 74374 17945 14101 11647 15937 75665 71466 3521 15673 14105 57930 69557 59363 75680 21134 44968 13929 73589 81897 11528 67454 79215 51767 55212 16253 71343 16481 54585 71269 71881 31249 92533 73935 80772 90817 62979 10519 71639 7764 27102 55660 26295 19466 77229 85057 9974 90585 56781 43837 23800 23498 74314 84419 12353 80616 5569 30561 11694 92567 58881 16834 24375 99049 84903 66238 33857 66007 27082 53587 82182 26173 84580 48241 7601 68160 61927 56727 76439 80505 64461 73553 33073 72153 34729 99083 21041 49713 1382 94344 44181 70471 73909 70033 30277 76609 73017 68478 76279 78049 83727 66491 77196 34881 52530 81944 70315 25779 84274 32157 47915 80849 94594 25064 31041 66613 63629 47157 52833 75444 77768 77551 78652 40197 68429 45749 55697 74119 80067 36417 80285 21121 49875 30895 27881 5823 45887 57918 31610 97801 24637 96247 75487 26927 3436 4161 96394 82873 81409 23676 61557 13185 10969 15886 32272 1825 92989 95771 83959 54930 13137 681 34771 31470 22038 13605 78073 22689 68543 18827 24425 23776 75163 43509 93702 70385 96725 13072 97279 99767 64562 18067 24505 22725 97487 87841 15189 51075 29889 79505 11233 30049 5282 67498 82089 81080 35857 94787 33887 92337 66625 69497 20521 22045 51202 81287 29146 4786 16209 31855 31159 31505 36161 51207 23245 16325 83617 86045 39265 63709 22587 15585 97317 35569 15529 21504 45671 32087 97509 3381 59517 50552 26746 65251 49199 15925 28179 82793 12713 51633 82387 16370 90060 26891 8995 8130 6117 50713 4625 69201 66303 14861 13161 68377 32202 9849 18243 63862 28661 70460 41441 43917 41323 51593 63665 91599 73767 80654 85745 55066 61632 74335 94977 54045 98233 70749 19731 98537 35585 56191 85505 67005 4117 97729 39338 1785 63873 22848 13342 74657 42279 63434 1181 23297 84626 46992 12489 545 52227 53695 9953 72198 5591 54527 29504 85505 46225 876 19821 2075 62721 27855 21206 99970 899 21667 85712 27649 16495 6755 76781 41671 43771 968 94471 67449 77465 58037 40281 57463 82209 47375 52347 68293 24699 797 69497 71059 73715 99925 8124 56552 8449 83522 74990 64103 97066 81587 28904 71433 80573 79407 14770 47929 19009 64345 70369 3199 99715 18365 88510 88139 42816 77050 81733 4137 60704 14551 58333 54157 59473 2841 69605 33190 6763 95169 32154 88404 17913 52650 80449 14386 34865 625 10705 85579 85457 26418 22177 91923 47179 75452 66305 19233 45217 45937 44121 4015 26354 88103 84459 20273 60801 82771 63379 12127 21494 2409 13512 9015 35401 90590 28721 4271 53464 94193 25260 46871 83257 59231 32233 88011 26136 4489 47293 22651 56102 9137 39437 89785 68262 32957 52631 52805 84345 48869 45 33819 2885 95233 46981 89192 79761 9248 8430 74181 45536 69842 44721 42271 44050 70623 67931 70809 73481 48576 51605 27241 67586 32556 72663 44435 43427 11770 91309 56929 8511 71813 32178 40401 95352 44838 11211 56037 10678 29651 4862 5809 99028 21727 79957 33153 91389 17910 38835 53773 90533 61943 37709 21819 59508 36181 54343 68475 33668 90964 9979 88468 28273 47001 28976 74449 56453 10931 23521 93397 67329 58937 81593 35435 79935 7697 58001 86301 41935 4258 38977 29831 48241 25853 91928 63431 91346 7368 77905 97064 21217 41733 1197 46661 54364 80237 4740 43505 28715 83133 31108 18971 23033 23841 30777 40545 12028 36355 36197 36196 44769 46025 84823 39863 34381 61833 37441 27753 84169 34925 78625 11978 55165 86347 67707 41327 58453 14205 44807 75123 96504 26533 28293 86857 59580 5881 85249 39919 91070 14973 68089 4308 51941 33275 33957 12747 42089 89351 3747 20253 7509 69707 45558 27753 77073 75333 54999 39745 91303 31817 9265 6561 17075 73613 36775 17957 62211 54051 59813 59471 66935 16715 74734 41825 67039 24645 84490 60638 87185 51415 41868 10029 88401 89593 5505 2379 95681 46178 3657 92491 50042 87897 31153 77431 82962 83176 90677 40067 75585 6542 76481 62029 34672 79027 48421 89360 97140 37854 78821 33615 16936 30401 17161 79376 80875 83775 89114 86385 54509 79632 88397 60960 91664 4921 86081 77464 19607 95543 73487 14309 23706 82139 27611 26497 74858 65377 56215 32929 26000 46229 9715 73889 62970 62965 2695 9208 84988 72649 42058 31476 99929 38073 21785 64470 5808 56211 96852 58113 76905 55617 92261 27717 14182 46077 11715 28577 68114 33177 33413 69066 97729 86901 61191 33777 64040 8601 23513 92412 89105 14565 32458 36037 56825 87803 78313 9793 37081 35080 67793 34645 18655 37173 55849 81108 18469 60009 72933 92409 12050 66913 70050 62473 85529 92011 46645 42055 77010 81697 21153 66807 72649 38054 94033 84783 33427 65399 20269 81537 42735 98257 94933 90702 33037 74889 69577 25918 23029 31897 70891 29209 15991 1849 77461 48041 70433 13829 65441 71967 59283 24205 7993 58545 49185 99947 19525 17565 31667 18115 53057 62387 45529 94629 29915 5328 16110 99315 86909 29989 57299 64481 90641 38712 66729 79958 27529 31185 40642 84253 94353 27953 11968 23411 83392 4841 37621 82941 17251 84591 56930 61209 85757 85553 51513 71610 46314 74152 96985 44926 21171 5089 37016 61281 15063 64529 24865 1241 9092 43549 48013 61161 84157 61841 79502 3381 85978 5595 20861 80545 74982 79901 65817 44013 8081 42291 80877 87414 16121 27233 92833 82429 99283 44947 4577 65844 67199 88988 90026 56355 96985 85835 44897 55041 69525 26285 63337 96125 6421 84953 20633 36917 82677 65233 48950 93953 43051 13785 57755 93865 16208 79258 85556 62913 52771 3724 39565 50166 71585 46903 38889 6615 5255 42471 15846 67251 7385 45087 25029 26145 15993 43111 42946 87729 76083 10945 78101 29515 13285 54089 75217 76957 85645 8559 83757 93985 67912 22761 28480 96335 11953 3529 51517 91641 49525 35668 42113 5193 93113 43095 72446 60837 89145 21611 72874 22023 16408 33125 28975 20243 87912 69577 16516 6894 24011 12425 319 45727 55209 71169 93922 59019 82337 37542 73716 84667 48761 39541 53929 68303 43980 45545 57136 30361 69661 37812 40136 85685 47105 48113 11969 43521 87761 38182 22933 82286 39959 46407 25315 32089 89115 67649 17878 38736 74649 45945 51978 64900 16911 67709 82651 58313 57970 12036 55958 94043 97175 16901 73004 39249 6457 17224 32726 33395 77588 64951 4370 55797 48325 70203 6785 91595 53945 32737 39308 93329 7353 10111 39541 94435 42897 42465 61664 65425 14393 86069 50265 13036 6383 44014 49175 89823 65715 70455 38342 8325 24322 63683 36883 41870 58625 80001 26713 53093 91845 79661 74941 65003 40755 65108 76189 61383 62337 84381 82893 72045 80487 58163 52714 32265 43111 49857 43210 45998 65695 33801 11473 98212 95441 5845 10339 73995 49106 49839 84421 2301 24119 58581 42445 40049 41745 48945 89808 86037 7320 60073 77315 27158 86982 34345 77431 83551 55469 77205 46490 74773 21464 95741 52161 1645 66929 60493 19288 42156 24647 23049 74721 7953 64255 14958 37372 86460 74734 14663 65325 98633 70997 95405 51201 49526 54381 66555 83564 59681 10145 36469 53242 2617 62433 79706 73592 84071 82419 37367 40367 1605 83056 73364 58136 44353 67131 47265 97379 75489 43717 29105 27521 6921 44472 17381 44729 23689 39103 65219 90185 50477 89633 38032 39217 75469 98064 39969 25268 60897 82661 8517 90681 9281 55389 23521 61365 63075 12376 30241 92705 9737 35983 6157 65810 90959 30113 83379 34229 12257 5324 6167 76809 6657 27141 65983 52281 3591 17313 50558 6011 46571 16947 94709 40438 6113 20609 81655 1748 60583 39921 39489 80870 52789 38604 94601 9810 43552 3689 45405 62845 19943 77289 36995 92289 85235 18537 96809 3412 4560 88705 36961 44866 4355 18993 96928 35379 9825 34444 65549 17821 30112 92673 69122 10273 21927 47216 16906 42812 40001 3884 40527 92601 6015 89525 49432 94484 99153 21796 39777 66151 56729 21552 81799 93480 26709 19090 97368 43361 33883 56415 35512 27558 40997 23708 33665 92428 37997 25131 51121 9781 64149 22343 96817 20358 91993 27789 5873 92169 76191 90630 11937 54813 49231 74929 70 52385 73902 60346 97233 24837 6053 78109 47914 72367 59371 51915 64305 83203 12338 91862 92998 51847 33825 51657 79129 30929 84806 61630 30893 52991 72534 15809 9458 99308 51634 55871 48980 97173 75895 8181 15435 38501 43037 85475 2788 65689 94059 31296 45191 72017 76821 55671 13354 88548 97410 53603 22607 87009 31065 97249 13278 40065 71368 48547 51041 30263 91169 32185 80473 38408 86961 21233 35239 52385 77097 81576 15509 33345 685 80537 47617 64029 73395 11410 75845 4945 8629 10727 63069 12532 85365 37533 22877 29453 21138 84513 87561 67833 43337 15461 67537 18822 75161 40898 14634 91861 97234 76763 94461 53365 25758 57298 57323 77913 66790 85509 73957 32279 5025 94635 30849 73809 34497 51151 79569 53474 47602 78477 87529 99649 69267 24629 36534 13345 10981 96825 58795 63343 65255 23395 2607 66325 87066 23129 57962 48937 48429 69241 25133 70865 7825 7673 3311 66574 37973 96012 5 3522 60532 90833 35013 57235 47850 61081 87463 87133 89007 51389 42951 84843 45251 85001 233 68205 84801 87500 92381 54771 18833 85917 19853 55309 76933 35621 47071 24053 21181 89329 68181 80781 83519 67637 92410 20845 233 46663 2925 18430 58341 94845 45781 54217 67413 48459 65597 98827 59125 59837 37972 3593 45619 84623 37202 30707 87705 28113 47739 68823 37753 27147 79113 65838 22619 79239 79691 30643 21089 5669 39452 95594 73645 58037 99725 53200 82254 1073 31717 46176 33353 7402 70423 22911 16291 89201 39689 34401 37710 1369 97194 91929 47937 22189 25652 29231 38749 83731 66837 29194 17497 90504 88436 24710 99470 79205 35329 13810 1705 88775 41959 9039 41973 65932 66789 25965 64569 67989 23072 12399 96439 43262 76734 76425 51205 76979 47173 72177 43877 48465 15949 91329 41439 48846 26017 20385 80917 26660 65222 43257 85088 10036 74857 7361 99247 13993 65937 21022 69553 8478 11585 94012 31560 62091 23661 81942 69019 39669 55043 9510 43071 57137 36469 72948 17303 19077 59192 86218 45837 48483 88446 79661 89821 40807 33185 66623 66799 31104 51489 77905 44728 34337 8783 44713 68665 38369 37005 18512 50043 37489 86544 69651 23552 15641 9313 20865 32271 60617 93125 3293 76321 78661 37362 71291 76977 85935 1896 55593 27494 9759 56405 50200 46161 73045 51978 16921 55986 81226 9553 45550 89514 92350 58655 35543 69645 95701 14723 47483 27849 79079 70184 65737 83788 46378 97751 32152 66572 76526 5904 60607 28061 7939 32859 7528 27635 23295 38708 21336 10889 70014 16777 85039 14753 88513 9051 22977 83887 68967 51959 83283 17574 70308 48381 56459 62251 64927 27231 82137 26737 73960 58722 3776 22945 91537 59033 9322 60851 44588 7377 12074 78245 46870 68533 86457 83239 23548 96102 93066 4569 12281 38551 50505 13089 51651 45167 2427 44813 67713 48225 17639 10985 70506 82241 39445 23849 80767 39998 87761 67922 17829 97248 40735 24398 51751 67971 63425 12637 45103 19921 1297 25243 36833 46475 99528 46789 28961 59412 35825 20663 87197 19547 89873 38897 11692 32259 98805 75937 93105 43939 12165 66510 35413 81099 95585 31856 27926 97732 73785 76247 88475 71985 97409 12501 19118 39200 57985 81437 58541 25225 1977 70804 54213 96673 82733 63093 51215 10110 30017 19049 82848 12471 95521 44236 11373 32097 47697 68449 98763 9057 307 28445 5763 87568 94910 94979 23499 46403 74369 68079 18665 38939 27913 30020 96272 12254 53541 45953 93797 16061 39510 88575 4005 49395 1894 67595 66452 31575 61539 40815 28993 57142 14981 99800 82691 64616 21865 6261 55244 51801 44947 70455 30115 83817 32457 95720 74997 19772 16749 51901 69969 22343 25009 98879 95017 56398 65000 33897 621 64977 82888 84913 25359 70564 87038 21946 40765 10396 59809 29809 59010 93202 11308 43363 91473 3667 40439 8200 68114 67896 54403 75721 84533 64205 49876 7337 12230 83317 12513 60986 8705 60725 85969 58501 34645 72401 59837 58717 2756 99639 4019 96321 30257 16989 16241 15306 55603 34349 19076 48938 65210 25591 86303 24555 22679 69439 26537 72627 36841 2856 81113 17017 88722 58397 91163 42598 15975 62763 72580 48849 46734 31409 94148 95379 60036 10161 53479 52661 36921 35137 51531 90299 37927 99265 48901 88208 96167 91329 89765 3879 82 6188 18116 44525 33841 34553 79433 75382 73901 89015 63065 29084 86311 63793 37755 14745 29383 71869 25507 28249 30347 91745 25907 63977 52422 85121 13885 55021 14081 11367 41135 96277 37515 32232 569 34169 38181 50121 90865 79097 27837 3469 56481 49257 47921 9542 34594 32393 25337 6125 14889 30561 29281 44401 82749 27261 18417 68972 77614 23858 40074 69601 567 66167 84010 28005 72581 28167 25281 14029 42145 45669 67520 5453 85661 50881 29541 15527 4366 78246 50229 39813 65 10537 32531 2465 65957 15226 92254 19457 55021 62113 42785 53457 79667 53827 40841 32318 55285 25881 87549 33153 89745 74178 75197 23541 98713 43321 82689 64091 81013 79905 12226 49733 18852 35001 1187 10586 28785 81841 32305 57017 21429 94801 14495 61053 37185 21680 69709 18286 4496 80212 49110 91518 82302 50077 14337 81719 16001 51516 81629 96225 18947 99366 93729 49499 3858 23713 10656 18553 53371 98581 16711 1529 59846 86935 15841 77145 75007 87816 82741 90075 99802 96368 61074 11252 32454 75937 50097 39375 79789 98045 46541 76756 49826 71305 89386 15687 27353 11576 64921 52049 65744 44288 5161 26405 70129 65347 49803 51386 3185 28585 62777 69927 3329 79056 76497 49057 2451 6715 66869 74113 31281 42049 45991 33931 44766 67840 27751 28080 69597 5506 10464 45857 67937 321 34979 96389 84133 83529 30849 17736 453 79977 18498 72509 40737 99771 74427 60772 66141 80587 86007 33724 30077 49279 46382 24641 33435 58875 76667 15521 94337 84909 22665 55365 60197 50073 93999 4897 69311 91617 67937 55332 61552 75201 44176 60410 8537 92452 58145 51441 63337 67191 89017 32830 68531 22401 78253 29490 27093 28326 75063 78985 93724 58882 9429 21380 22650 86313 35937 54926 69543 14759 20491 64237 10345 63520 11631 53777 23643 22233 42113 85943 43489 99637 57253 57023 41089 5333 45498 71546 52095 40521 32203 27337 17637 42241 47439 28469 55057 11911 64642 31931 19666 9171 87745 3764 33309 47241 60065 46185 45009 797 72589 6189 29262 64698 18831 45596 21051 54496 28686 36583 81025 48001 79257 24151 50623 8225 43337 51303 56091 2401 3529 75477 64977 52843 2783 4921 61217 59553 26901 29502 79233 87247 40855 81217 30169 58309 94337 46733 90401 98347 70337 92461 50943 86507 58529 30273 58885 21522 35445 37466 54945 23185 99513 72685 61837 91059 42481 75345 24398 62452 64631 5193 11037 91715 61181 64463 81847 5404 36126 65599 98087 12913 95040 37658 31271 88946 93861 99513 90072 70264 64553 76893 12614 46628 30199 76326 84193 24809 12101 99871 68651 50586 48859 29931 70184 56429 9677 22549 10385 71041 70466 53302 45892 89112 94929 3569 25845 69884 96509 46497 39913 83086 39535 38373 11287 60035 45127 24434 17029 60667 7026 40256 89967 44705 36665 91781 94767 23522 93585 52583 22344 60313 63909 38263 45505 94692 22057 50401 93977 84430 18283 39593 72876 80593 79589 49681 25084 86017 67309 36785 18689 80119 21087 75173 89245 45717 97272 63201 83378 66795 43425 23673 32786 1403 95345 85981 45509 22630 27519 5215 95829 42917 99935 37061 18960 8097 58243 3301 64835 16009 76005 64825 14751 72067 96826 10029 1387 58478 77387 435 27138 6831 75175 68956 24625 39517 22936 3013 85546 62199 64333 86339 43332 67645 91737 76426 7274 38611 38477 18421 98384 54333 93501 99389 161 73549 72593 857 34745 61638 5114 44805 31691 85053 7009 20245 32889 90686 22145 51330 28859 11922 74769 95155 83985 49732 84801 62689 18381 69919 54089 23045 11213 15217 22705 86075 17889 35655 10137 5644 58495 1706 68687 45899 82038 18185 60529 82809 73055 13089 74697 89725 39339 34609 17721 2790 70489 12427 16081 25491 90527 87161 91275 79347 16089 66017 23809 38940 17363 7121 92150 60618 42376 36433 78569 5177 17225 73740 35583 10955 98657 50857 12753 15919 31033 87659 61433 79527 32316 66208 23357 50710 13609 2039 63521 52411 18221 72677 64390 61322 53983 42606 18089 6603 20661 5489 90699 55021 68310 75717 11968 28239 26743 89163 90833 27331 45975 1353 98615 8931 52227 44799 48522 39726 37007 50333 30766 16833 7427 29742 6669 21235 83317 40649 92948 93297 31001 98993 17691 37018 74009 90844 66989 74922 12019 18645 38890 5617 13267 44616 2720 61310 64761 36799 37345 57081 85725 6717 87117 92809 420 48765 59493 41789 59895 78625 21828 29188 12635 43205 82297 62177 47933 23986 38017 59637 46759 67165 3377 71987 1441 86045 32461 1108 14537 16449 73121 93313 4259 72293 78313 89773 87845 769 65787 12049 81777 84369 78187 70118 69439 68252 43681 33297 60135 48081 51902 6059 68407 68075 7185 29774 86267 19164 5975 29435 49767 36913 32334 83907 7165 85234 88004 31745 20697 53308 41989 87048 68292 61641 81469 691 51016 72109 96689 34102 8475 31548 88305 42959 38011 87401 47751 1369 17915 85617 23649 54889 9911 39243 57921 8697 14944 15028 92351 23027 74241 25965 74230 47006 60577 21339 48105 84965 14480 45021 7844 64767 45193 5814 39711 73692 84249 71936 32270 97633 93043 81866 14017 51274 8257 49557 75233 61761 17693 92609 80657 70756 46637 67171 32653 6145 27289 97833 46076 94593 82501 25611 87621 4825 92566 94113 48424 60802 63528 92847 45289 43609 91484 2355 12545 78763 97584 93157 61741 5853 9024 23677 45858 61985 20875 98990 15085 30079 4325 15207 89425 97277 14033 22537 25621 86909 95818 86561 70331 61573 73125 40327 90923 46749 4777 99893 89405 69442 32764 25961 4617 90927 32832 11625 46792 94950 25828 2177 16783 17706 6729 33 84181 86561 9442 87965 55051 51834 52942 72856 14760 25408 74849 58521 62825 9341 44581 45291 74765 23589 94237 4273 19439 50702 93249 1125 87677 79193 15388 44075 1943 17806 89409 48113 2865 79265 84153 34212 75329 83537 91511 54549 31627 22095 40722 75425 65197 48971 81340 17719 40342 98763 67501 94737 3809 77801 95713 76008 4798 49199 10582 47329 74940 31861 97448 4694 10302 75921 32405 77456 28249 36915 57740 12929 61227 52825 20392 51501 63633 12913 89580 72277 22013 97557 74410 30593 34129 29500 11387 37126 45925 64643 61361 77612 82532 35241 33437 96625 17523 4882 61489 81299 93528 60035 38409 17645 29469 39404 6121 21765 56735 28241 73940 81952 54401 3995 12393 19237 22721 41177 55277 23821 72065 49633 76011 10513 67972 93099 49052 68340 25962 93892 57034 409 53207 15920 87529 73483 78065 6465 19072 64339 23713 29162 83971 87069 24671 59923 30122 48662 18356 6542 60201 53303 89278 94858 86737 39165 72661 13649 20926 68237 29441 92967 27441 33877 35985 83539 988 41042 28935 95846 44224 16067 82687 54013 80233 68982 23494 44273 87231 95865 68641 92437 9513 24649 89266 94196 43367 21217 66799 75702 50868 77817 63638 93597 50803 62687 66885 39929 41390 81217 81154 13337 27094 10459 90025 23097 3537 67343 66035 14281 1483 59605 80073 317 19545 26317 71293 13043 78484 60978 16005 76120 72659 67539 87137 24781 8673 23311 39161 40533 5577 78738 47799 95797 17063 37209 34054 70753 97623 21981 95163 31711 59615 11325 73249 50260 81443 29381 21408 74709 94831 8672 65940 9956 51345 20925 33920 16081 55167 26849 50989 65321 54047 86398 53133 85538 63552 78665 29869 81313 45441 61205 82741 7777 57650 42172 42057 61360 25801 43017 30186 23511 19186 7829 25008 9367 35604 96769 81074 90795 1717 14993 97385 83259 4152 30849 46597 7111 40551 51887 95307 49416 50253 87705 25193 28588 28773 41155 29187 52807 53137 95682 20917 81497 29657 84877 41493 16209 64199 17287 96813 6401 23263 49535 70181 78547 12451 18527 78817 68177 77161 13665 52383 34179 3231 43349 49137 65355 64803 44715 16959 46519 56196 3937 71482 88929 52002 35941 806 38049 44241 26527 99093 30473 53342 90457 67969 66660 4413 74881 52906 50273 82116 54984 57375 35331 80766 83113 59658 34405 51775 18531 42673 55049 13441 11211 41272 16605 30981 62608 66497 97065 36827 52129 90572 35197 51383 29074 98585 59183 29391 94607 69345 82707 20491 4973 47157 68148 56643 69909 20289 76327 66344 47841 77522 27858 98219 98736 59933 83210 71617 96580 67465 11929 23867 73830 18611 28313 81321 99184 51045 15470 84345 17601 32465 63529 29595 40965 64181 40313 734 29968 65249 71637 91169 71139 70739 49143 74717 16958 89210 42008 95047 9836 80127 54278 10844 36801 79731 82279 54593 50405 78386 5172 71137 94979 99207 76817 5681 4131 13793 36011 54689 28161 71430 11729 89560 49851 9265 77796 20177 76093 59219 47447 30649 59929 80515 12370 39547 41773 39760 95291 26197 33696 92305 25215 43621 21818 16337 93612 35665 10458 64625 73815 54141 81513 19729 74128 87467 17453 71633 43267 98391 80595 86617 1665 22819 36897 98583 95782 93363 8363 14958 22028 66592 76435 77992 5940 2877 26167 51541 93981 91085 93391 50816 4873 67734 24865 2040 94827 97852 68747 33058 1592 38225 44985 11345 63585 59387 63306 52325 68692 78411 48095 21121 41764 3335 31057 6524 57369 96517 54530 98008 23675 57505 49553 8185 90690 15140 17834 93142 87591 1635 46204 41985 6107 53525 41741 63139 82346 66441 33223 96561 72312 74921 67302 83748 70459 30907 89949 98941 29947 46330 84928 15146 11471 38939 66204 93170 83641 75137 70831 52220 54569 68297 58432 57138 96057 48885 22953 7560 29385 11819 86307 13819 37053 67105 8897 19009 2839 52891 55611 33975 92843 96463 84206 88011 89565 89825 79422 17569 90329 94836 26107 4099 30654 43221 16442 73299 4865 74657 72312 69919 10167 90341 20115 18169 58833 85705 3633 88094 24617 61921 18613 92629 99904 71456 83617 86151 53475 84517 59341 12539 19173 54785 31809 241 41920 10665 84603 55454 1217 3013 90840 28587 35073 32342 72966 57469 41208 21028 31992 63975 15825 35009 75265 48761 99937 57834 13370 23047 17525 16256 87105 47056 27645 75543 53295 63858 3069 17377 66819 59213 82871 73569 41694 83795 25883 95507 22492 93634 16019 20821 31646 96711 45243 44913 22253 53483 84013 31505 53593 39937 53633 77705 34285 19525 12781 25737 85057 53981 35164 90997 19934 72849 75321 25155 74052 70743 19417 4441 35933 39931 33825 87176 9488 27797 3003 32355 78009 26768 50907 59865 36154 37580 705 18220 88697 16705 81601 53017 93475 17341 26858 70143 22645 8529 46457 85673 94567 12215 72625 45373 24292 99217 16187 63233 64691 27563 1697 59587 20077 47399 3908 5975 41105 33750 99659 76145 26813 41490 42109 6598 54406 9505 58779 72049 54201 49353 33348 53659 11353 14066 6021 93224 78463 2462 45065 30322 49742 34523 75809 41003 86439 30201 19122 97560 13115 48191 98299 96736 83059 27732 51025 51640 67548 69887 71393 42297 41561 83827 8409 68388 21669 80384 95829 21294 20103 99605 36844 37123 75903 94655 46655 51948 67347 8173 84924 75871 75677 87796 24669 73057 77613 8279 75169 55502 78428 29899 31707 64425 46201 18793 82409 52283 92025 48912 85201 70427 49267 26379 11971 27309 22979 82956 29076 43950 56527 31905 47476 51371 29693 88793 64997 52544 76899 62118 90377 82249 62303 81207 78805 27553 16021 75441 48242 24670 89233 4036 25554 46721 26864 47844 27193 6071 96276 31353 10711 92399 71061 9353 89558 41666 11320 75337 81181 16513 170 77074 4183 7097 19718 67854 30805 39479 16579 29598 4980 82841 67779 75173 5063 84627 75489 65305 99538 1047 52785 68645 24667 68897 9617 45845 25087 44613 24347 26403 36521 94343 18392 94433 85777 33962 68075 43190 96613 1 77961 96709 20921 65393 6417 12481 41365 36412 18814 69816 94285 53120 70563 50683 39608 72529 88172 46159 68655 19740 7941 75193 85931 38221 42793 43179 63624 11145 48907 80223 95726 46360 41555 97667 30065 55561 97893 90313 74242 67088 4881 62097 50780 2634 7389 32077 97806 1061 78991 58149 42887 16981 41164 12029 8755 70566 27529 96501 67339 84449 8737 6777 98827 19953 23468 12601 58621 56253 33937 19113 97921 9017 333 29541 3173 92257 23567 56627 93567 26545 11026 36681 13890 95797 89015 13945 21757 94785 39853 57935 88255 22523 23439 97592 94777 99153 77309 42829 36970 36521 75626 30497 15297 83367 25644 99217 74534 50753 32309 67293 29889 27 82830 66409 86889 82305 24733 78009 52052 33839 86911 48367 51602 54785 15305 81289 62908 26385 4299 49108 66057 55126 34488 63270 71484 98589 47271 83443 81913 14637 98641 94359 3379 49589 52534 61457 86651 91637 24473 52185 32285 65906 1967 97950 76226 97244 56144 61026 50289 74483 42535 98794 2408 12585 69689 60769 46785 30505 35216 75306 75350 40622 9625 34915 93090 97396 11739 58037 30342 77255 96643 3497 35059 68093 45136 64434 61319 61137 17821 77882 14937 80147 24543 31735 35241 4255 24305 77576 46301 13554 23792 63765 26913 74669 99913 30505 91945 20081 74865 68241 17366 93610 79997 90755 96657 44053 85889 85351 40239 54345 16457 16339 8366 84571 72181 45235 97159 49763 17683 42643 78876 31857 43165 90848 58031 19778 83418 76810 35393 46735 84521 50641 2125 35351 38346 63168 49313 24833 47100 73328 13769 67245 84773 60642 48491 82949 11167 64283 41357 15333 24441 97500 7477 63303 47561 11945 17385 41589 99461 45829 80807 3964 83753 86375 78175 33900 15301 44673 34423 48178 26900 60065 96071 91265 93797 32941 89521 26155 52597 69910 42121 13577 91311 24807 82819 77248 14216 35489 31097 65855 7639 57318 13379 46777 90531 60560 62981 83161 94795 76694 75408 18069 58449 22480 54059 51599 58797 58273 33474 27236 43241 55946 59479 51515 6457 55168 82983 3341 13281 53449 93101 3977 86583 41263 17380 67147 91874 37680 19141 52973 70469 12857 68129 1575 19879 84621 89729 890 27847 35713 54830 49601 12339 22339 77904 31325 39657 75765 97051 62765 62123 31879 28954 40530 28971 80839 75031 42197 28644 43419 77959 82472 32525 63625 27106 51180 64701 74453 28843 69640 23545 1513 21318 22241 20201 17016 59309 21909 291 421 9076 29677 56645 28906 27521 80314 41927 75033 64097 49681 53076 76389 37921 45865 50403 22589 48523 45446 54811 89449 4130 17997 44183 74926 91521 59787 24545 11031 50845 93535 61281 34620 75247 13393 84249 20026 1105 74645 40886 40769 2015 50947 96764 10525 16189 45805 86216 19649 54129 70131 67417 62351 10999 48586 64289 58957 19906 60389 17543 53290 40491 8806 97986 31610 641 60098 77897 39665 46474 60385 69989 74489 48761 92793 11073 96741 92563 29489 33241 17825 20633 68069 13999 83851 23030 38549 14787 48627 2857 99070 15117 48789 56313 85420 65177 95858 30279 75697 1230 63436 18886 74495 75625 3405 21215 82101 53615 18774 73781 39459 39325 68663 97333 25691 69307 50721 73461 30493 2549 62979 17855 79921 52189 54350 48545 96853 51217 81698 7765 30602 70461 76216 45073 96465 51229 9000 86725 95413 96192 83363 13073 42666 32836 14344 8851 67587 65083 23629 61647 4633 54331 17861 96858 38519 19720 191 92145 25741 56354 47234 84966 79824 4349 23449 60989 17351 72832 50987 23143 72060 66825 10239 46624 52833 61380 52333 67508 8241 209 44769 6522 94247 15911 85041 19201 65233 32905 32177 64716 9287 74601 96501 47497 34945 18117 55541 68206 37555 72319 69083 32375 23252 55745 30729 14319 4322 79419 70046 18433 62617 38336 36721 68505 57826 79233 31941 39457 12965 11461 51919 30911 50343 72 77673 61281 2985 54673 18938 80041 7852 13693 56012 20481 14331 43089 92575 74555 57073 87433 10341 3165 12705 6721 68175 72413 67692 31073 29293 26507 48367 3761 46673 51689 73497 42745 41772 14097 76023 4234 82449 89291 42155 61710 32481 63917 69057 4763 33177 39342 22097 5313 26987 36768 70405 6192 34515 73157 67559 60093 41879 96993 37559 92643 99841 66374 88745 98863 63353 73565 9718 91687 43467 19945 1640 75103 30985 90746 31591 56701 51333 77565 77242 54196 40154 20531 84589 52705 73473 3117 23665 56272 8346 85615 31635 49775 97229 81445 21713 70274 85985 14555 65065 60149 99885 79937 55313 46229 52151 38239 25383 85947 2353 45835 21057 63805 69553 62689 51274 84201 99615 82877 26352 60855 67236 65958 57153 90328 55433 96625 21245 10602 71852 99593 78589 79229 9574 84503 16757 86949 33667 66697 23145 40603 1659 25609 5761 79073 8159 34209 62483 33000 11633 81967 31641 55450 79907 67201 7322 74735 59777 64857 34676 42145 27453 4996 3745 49876 67497 24081 86882 90289 92839 79505 33217 9184 68833 33124 16835 69902 1277 55649 90525 69915 48647 81191 63506 23473 84613 93193 52785 39897 79109 27679 27481 35777 33849 85433 72069 14916 79172 93062 4279 18765 10968 19844 43343 80773 40838 87384 9961 52380 74324 16483 94623 58145 7231 62771 82785 84871 28955 25195 69279 3732 8405 30561 89830 78421 85263 77679 91805 53812 92384 10259 75870 25097 68651 17631 62567 3810 97760 84945 50393 37233 15126 9743 34450 58232 42593 90593 72125 22278 79420 4687 77449 74349 58577 37629 16321 34977 19306 43331 74657 33065 92062 70337 49262 49797 17187 13570 5227 85235 88020 66397 39269 80253 40869 40611 85846 29249 52185 2433 90240 5403 49074 24127 49928 57621 54423 44556 23941 98145 43625 25809 5919 59355 70259 80513 53472 73153 92523 84401 28917 4684 74978 16907 3937 56287 81628 98333 9325 25032 16027 66370 49075 79354 75041 43394 35681 51069 6177 48497 66823 75856 98679 17093 64497 25366 81524 72529 46475 31721 54754 85164 55924 36921 52505 82360 9330 91913 9787 2989 66591 43282 79129 43697 86436 66021 33330 38575 48255 99681 52681 56465 74415 73165 51885 36081 64736 97365 70021 79210 95895 66667 24547 369 72625 87507 3682 73359 28069 36551 77601 82981 46805 96731 46827 37921 18976 20635 64829 49427 62259 89898 71413 16203 609 47449 13157 22493 13718 42405 27988 52716 82042 57297 18163 60597 80396 39393 47306 22854 26189 7145 54929 70629 82295 52743 43527 73815 3339 44594 60653 54023 23899 15603 88128 11602 36599 32469 11810 23212 12013 26381 40023 63491 18665 27561 82677 68625 45361 96996 29292 43534 41681 75245 75761 87305 93554 53381 44836 59501 96299 84729 17893 22183 98355 98370 27259 95531 3145 16064 67394 88811 43302 52983 54224 69558 70720 79348 76207 5693 61258 61995 74109 27335 88309 60625 93365 32449 8619 36137 88890 59250 57331 62902 24426 99353 92581 95354 26585 32938 26416 89736 37738 92053 61761 27849 7983 367 97729 77568 18123 9393 61111 19639 7697 85993 87009 22070 12911 45321 31149 18598 12040 43075 96959 68859 78416 30698 7771 67841 96713 29125 16966 66541 95313 66753 66917 25537 98665 77985 71009 49611 73079 47000 28921 89213 20113 42279 76566 54595 49151 285 71097 50797 54463 49962 55377 84639 11936 26645 51673 16711 93734 29453 7372 10677 88101 5001 30913 67433 57015 89271 44837 96025 99325 3277 87061 55945 63565 54113 43095 7879 78899 96139 26067 67919 12956 18213 24815 38837 33880 37133 18381 8377 37557 10873 37465 70291 78734 22149 77669 73357 655 31633 24465 44889 16693 68858 10633 90382 82821 79916 54661 35288 48111 42691 4273 52225 7968 61181 82702 61377 14250 42945 8301 32674 76745 45509 41964 95415 78293 66005 28392 7817 24479 96893 18675 61902 62457 58894 73841 21021 43697 10847 80635 39155 97831 86216 96225 64297 27465 50213 54758 10001 55037 70981 77633 48270 59569 21097 18525 90493 46171 6385 91137 87369 26605 33933 34693 61697 44345 31825 49237 29025 28865 14837 74258 85393 58081 98093 55469 71698 1633 3083 81392 97676 71780 9056 88359 70569 43739 79269 46619 644 2825 82521 30849 97881 63049 50246 32119 68574 97512 29393 4225 1775 50293 24225 61803 73873 89765 51073 9917 83440 70493 97531 69308 285 96745 52789 78877 84541 73754 46125 1031 21381 69719 7211 42857 90173 79401 63871 95981 78505 75973 82393 40553 43141 75323 55137 37265 74325 68049 47139 87813 46885 73545 80464 32025 67318 82333 89137 54801 97818 43503 24889 66617 83799 30319 24326 92729 92653 51317 43148 42966 37082 22081 93157 85107 28241 64889 53690 5410 68084 91185 25601 28559 12669 15613 66337 79592 6322 68764 57015 9454 91758 66357 52137 87556 65773 32265 94855 49254 91433 55329 83215 5041 55157 9118 91661 8538 35562 4054 58116 54641 19765 99477 65431 41105 89051 12828 76457 31026 39578 78882 34961 54305 98459 87413 32345 85134 27113 49728 35464 90555 65537 73660 44613 78594 17623 61355 30475 28153 45566 76580 57184 94781 82627 99333 16255 77551 36310 82689 70213 19487 93654 59969 18634 44789 33381 30701 75033 85007 41853 88374 25021 77730 48619 54412 73533 39137 39762 91135 71812 3467 66660 61427 35262 37150 56108 34122 1330 23723 68945 97897 63393 73561 16703 33521 47965 81905 20981 26617 32790 77509 87113 86057 22765 95526 26949 49177 78589 31489 56673 42669 31997 35205 78391 66205 17003 51515 48461 26862 60325 27370 36903 50396 74823 31965 99859 3519 37703 40801 98923 46812 13121 98327 8553 83315 18148 52203 9462 80777 50399 57605 61415 29745 63848 83265 95871 18369 15297 56735 51420 2718 36885 65709 60140 53646 79357 95342 59509 19913 59479 95639 54917 76373 45309 60882 38358 85743 82061 53250 67689 66157 19425 95329 6248 45043 86549 68891 54977 30952 48526 3819 9397 51681 18121 71761 7831 39227 2537 9313 77365 25934 71871 41369 42372 84177 61861 49057 37617 67859 43328 14111 10713 73917 12781 29441 4769 5953 95559 50433 64424 98619 68090 29185 96969 88576 99831 23297 8133 16587 30479 18578 89009 83105 75205 31441 12064 81680 19531 73494 30965 19770 57177 6902 57861 17759 44440 79289 96468 41573 99329 49777 95895 50937 12861 62385 15481 67621 27593 83842 5967 88687 72182 37491 21610 86513 34145 57592 9253 34513 8398 75521 22787 69184 94833 38413 16110 1336 70582 909 71819 72695 15412 86782 76046 15869 87785 29043 42941 24028 3531 1272 18525 93628 88424 18769 12659 48825 72399 49043 10597 17389 97633 65986 15749 19949 44975 89169 19029 88857 68954 25952 20251 28642 31903 65 99007 55690 60339 82241 57713 86833 5153 33360 64997 93960 14687 29143 57590 96177 79082 45596 13585 73313 40697 28001 75083 93081 34380 81008 83721 90680 61247 66405 26309 90375 51573 2839 96499 38739 80387 33101 8597 84737 37825 34797 48413 85659 42091 33473 10707 63499 26253 27026 98625 98089 41893 3529 45252 32713 15375 45947 49902 37593 82285 79449 94841 55175 68563 33853 47689 60482 18481 96845 51068 63691 68399 84420 349 79769 39662 7865 7923 3017 49415 84871 49594 39383 6337 68273 31297 85504 68113 58632 77027 36737 75353 67709 76099 65677 68525 70255 75946 52109 76745 41523 6114 37861 30891 87745 76709 27571 67381 16033 5609 77581 99553 82703 29591 84445 81625 3405 11461 39624 52889 35541 73201 16959 50593 42821 23175 8793 2305 89030 9881 54463 90105 53492 23811 28026 98979 61281 4159 41915 46515 76052 22729 32073 7657 10971 23400 53141 54283 84977 89088 62245 81577 7167 75303 48135 20273 74541 2501 44337 68673 33921 82394 24013 34469 30177 60545 14432 64546 21166 80472 5409 60007 40556 79004 35589 66041 6397 66361 74699 62705 6045 15767 23209 17507 38866 865 37031 30175 92112 81003 6853 61336 89665 29717 93093 31977 77226 49121 26291 57367 17321 41763 68663 79457 13575 1725 62607 58095 45746 31677 86898 16501 88621 64209 12407 26796 34923 33513 57193 19750 77521 21364 86878 44729 89897 57264 26649 32680 14694 77488 32709 76408 80762 19753 22679 64335 96097 38245 3239 15845 10193 73341 8685 71129 98741 70246 16881 8957 53869 50387 35935 28693 2169 95525 82305 13283 7201 32193 95329 35718 53193 94497 934 57793 29032 11683 13171 2601 23161 61313 40399 87993 85585 38057 19745 52955 77206 50756 89123 15557 78651 38893 55713 28237 65710 17231 35418 63694 65515 7113 57189 49997 20163 4589 35131 20889 92133 48815 87311 17787 81857 29728 37658 33209 67569 92560 8861 51397 60437 1858 35337 60330 78569 87933 18393 15235 93262 45273 34061 26377 65604 65875 9209 31835 3452 96127 75665 61493 61699 51173 98476 36665 38914 10413 9528 97425 30661 55865 94429 11677 29480 62681 56703 43746 57601 64316 44238 68859 87739 65787 16145 59674 95470 56674 23689 68841 50497 6015 72874 58604 64771 96705 32895 33132 88467 29478 28469 74381 84425 93601 75481 13949 68857 25653 62629 42369 35377 56779 59017 61101 88051 72759 70185 33075 37377 53153 97497 52186 49024 12723 91957 79881 17577 68699 6267 26390 10407 93135 81949 46489 28373 39927 82732 44689 38406 97296 96425 4021 65959 66667 88513 13471 37151 12353 53605 5245 3441 67177 13973 62145 53925 16417 67559 56860 90315 9385 83525 88005 21526 30127 5807 43218 36172 97037 33690 2578 37291 39051 89958 45820 21909 69890 59801 78020 97965 95851 24380 62961 59772 14330 1435 49791 44161 30677 20007 50981 84141 63395 44265 48935 68498 77703 94449 75769 59220 90078 94680 83745 74689 99925 29020 58155 19397 72783 4722 71055 46317 29094 67657 60409 45177 55821 60049 37866 96489 18708 48129 737 89587 29094 80345 52445 59785 93491 30661 75573 12649 996 55143 81222 94617 16105 45365 82768 73177 75197 56842 52930 79437 10992 23044 14929 30729 66553 51873 44581 24213 50715 83203 11941 13553 67156 83437 38275 60235 75605 18852 91201 52511 58883 31099 38144 94361 99169 65521 6801 15697 20995 6441 62963 11770 53779 26966 50004 66961 67752 30175 19763 68543 55705 20245 29245 91144 19975 6637 55149 64691 26801 73193 70025 49775 83867 60170 7362 35286 99199 34721 20009 76266 13758 17035 85125 13878 12564 17635 2531 26431 95245 61935 76758 83935 55467 41250 11185 49513 72957 27745 51392 69637 43756 86532 3999 43474 4208 31065 3119 54821 47197 9883 87281 85349 8921 59287 94765 96848 67985 10374 28422 35083 8353 21047 70815 575 43827 27005 28665 7262 67625 72907 66659 66471 87945 53489 93868 29677 47393 52935 99279 66121 24577 61481 53121 73863 87637 22497 22049 36537 49597 85704 15835 85929 23130 27688 89460 89556 53061 13203 29104 47107 25975 69473 21093 66 40737 40625 3607 40622 48752 1671 98915 37931 33753 22721 73573 27587 66442 56715 47334 65994 92639 91654 44384 67757 11505 89585 10123 19815 361 59083 37233 85576 35792 58685 83681 62681 29444 64622 13717 21155 60153 74646 63391 95309 84968 69749 69593 79455 62231 14101 38385 83505 76725 47672 86423 98983 12806 6799 54411 87141 1009 33921 76941 68847 96504 44906 80193 15080 44357 15287 78707 60449 7953 62681 9157 4161 36265 37062 22785 86247 46669 85249 87454 93786 69553 72329 99555 93753 76534 71465 15873 19558 44520 385 80409 89345 50128 18263 17767 74105 59715 59328 25111 76859 67297 91025 89891 5356 22775 32017 98777 516 91269 9794 43424 80172 65458 34353 26284 90806 8750 30456 39345 14951 39273 57177 64164 64187 77560 43469 9053 11301 75715 32997 29193 12815 94263 8309 84741 93601 98719 32521 42789 87485 31405 19380 52513 66365 53857 58809 36146 88649 44319 25585 64080 1161 47319 23949 16716 9597 13475 60786 32957 36287 44459 4197 28987 60961 75801 6665 67549 45477 30974 49304 42549 65005 88031 47089 70453 11835 53673 71373 73081 66569 57561 48297 71709 67751 37985 69297 48945 50640 44593 31010 59944 73293 61202 77582 74617 48529 32577 36965 20327 13005 16176 61841 76625 10759 12129 21997 56913 15041 95043 17253 59844 98515 3552 40907 61500 64549 12652 28185 24975 88881 78857 26969 75103 4481 71514 34000 10727 92580 23863 22681 41675 16729 84529 72823 39841 28617 29403 26420 67567 35350 63594 15397 19809 48713 75261 42288 65073 4812 60847 88638 21713 69937 36091 70521 41173 12007 23038 17541 26678 44641 33665 80149 59947 30583 57203 38587 84541 49481 84364 36061 7946 21474 89804 77233 92569 96736 56473 14456 93075 42193 63549 56944 88771 66661 70438 13642 78897 79332 53125 58377 54414 8801 60661 65796 54961 43778 60886 61447 77807 3089 81857 12797 27500 32031 26302 4524 96921 81913 13327 37853 37441 48913 62017 45085 22598 94550 86740 6212 41219 9475 92109 30557 44021 9271 42649 96697 77692 68753 96273 54597 59537 25266 75846 3962 62986 64073 79304 17281 77713 68313 57049 6636 49349 9867 67021 88603 3414 90153 61715 92965 29267 70871 85619 71929 17657 93131 84557 57165 8964 26451 12767 63281 35628 14121 13525 37598 64409 17734 55761 71349 42113 57286 17517 61433 61517 26467 38265 67861 78759 37277 29577 15781 78439 2275 10465 40537 93697 75521 62913 82681 73121 59773 47901 2703 20299 93307 75341 13037 72977 77003 64017 35827 1491 78049 50569 56840 46379 18506 35794 67715 35750 50529 80559 88855 77457 48666 143 12637 39585 82525 27073 63129 55453 44765 51628 25517 15873 16705 94253 12468 43500 85847 88999 61890 86805 20801 67461 50973 23992 79473 43302 88263 84049 56213 79619 32301 37077 30626 10609 17553 21257 13854 89721 80352 53162 15976 77071 23781 32583 99529 73177 52343 38357 73021 50858 92145 10631 87873 96975 23031 19399 14925 19623 61785 68285 27929 62629 32979 48338 60404 65537 13701 79950 70121 60001 91880 99361 87475 56769 98409 4049 90231 94913 71553 32287 45829 15167 54317 46395 26437 23807 38246 2077 40728 60015 125 44449 87647 8438 26421 71009 91477 28452 56017 61513 91025 90557 69929 74746 27565 89912 87881 10769 94245 84817 88670 58481 42883 28881 92569 67877 78265 44287 46793 13932 30785 76597 64968 85951 91361 12914 38171 9105 78204 10200 99889 58025 9785 89488 53803 80248 52225 32976 56617 28400 22092 36247 51619 54071 91421 37934 19063 93087 49344 37293 89083 33064 10674 45614 73405 34836 44200 799 75003 3241 2033 83838 16290 57628 85730 839 91287 5501 84271 9097 74753 20993 96288 6392 11715 72209 31751 90977 93717 12958 50089 89725 18513 29921 10539 27803 86485 63948 87170 54077 65541 28049 49503 72697 70065 80571 27921 96869 15640 68553 33835 91670 1047 71764 19123 85257 38817 54953 66421 42268 8665 89993 62365 1853 52985 18217 31489 58393 4341 14009 51313 78209 13567 64301 38417 3075 21245 10604 15745 2233 63535 57775 39010 90276 76300 15764 50691 14461 61785 29669 12478 88243 9075 9685 93005 3446 65278 46437 68837 43609 47393 31537 95955 58839 17209 18529 83188 12349 71165 26341 51949 66823 78428 45071 32958 9821 49802 47971 49920 18088 89220 77529 3439 68841 29173 25557 27880 16014 65002 52198 46799 71066 39936 91813 23333 77785 43389 26045 10489 42707 16762 77176 99503 20702 20715 30033 65173 39524 89756 14663 83323 20769 67285 71077 93137 40857 48983 84084 69923 6053 22083 39634 75553 95468 2597 38858 14371 39389 83825 30809 42651 70921 53811 50227 81996 10231 8285 28555 85780 373 49591 89054 39281 9475 95297 11583 92153 8077 9110 6279 28169 93519 40733 21261 46628 85109 54939 85875 78869 95519 21515 17880 41740 37281 29537 93402 70542 61081 95341 68723 66412 14904 58353 5919 4491 71833 74435 9436 23041 12218 15969 28411 40817 9673 25244 13541 51935 26085 54868 83227 11202 11619 61400 15653 93383 37470 51213 36903 44708 27281 88953 27279 40069 65259 8993 78683 41249 82160 20483 28237 8072 36848 6305 88785 31903 51057 61819 40738 52469 72545 95615 11954 20317 55548 9155 38311 80424 62757 85131 85137 2110 18989 51179 20216 83393 50024 90369 58725 79693 13221 90507 50795 98221 27197 42645 12893 17445 40009 68161 80047 37709 72570 55929 39827 22682 70043 82154 21245 19674 10961 95645 53721 19768 41771 63617 72677 55813 62814 81217 65729 97496 66134 50473 5677 51613 45713 37483 2649 23285 30962 53105 12700 28771 3523 65174 61497 9256 83240 31276 77873 39874 31568 58033 47543 16705 8735 41521 30525 9549 51481 25537 79756 68784 32481 95579 29665 70308 92909 29809 74737 87691 86868 62408 14677 79691 68241 70609 52101 47864 28223 90476 90328 92123 34235 53641 20300 89969 48313 32151 16856 51703 27325 61767 27229 21652 95009 15682 80665 59803 20853 19777 22305 26177 34841 96633 55129 65577 80242 92857 65625 26948 7997 46963 70565 87585 53233 83533 75638 47985 96457 82081 18849 10709 1 16405 60433 41004 41663 7169 841 99601 34567 43291 12673 79962 56911 1289 7045 71804 5885 68657 75921 11511 29214 29873 66273 55447 18779 58158 34357 16567 47201 91761 7181 45313 45909 32071 43804 72633 19072 69104 41523 71903 92905 87173 95665 50229 47905 33113 88225 51447 75129 64225 5174 76713 22333 13177 57073 93796 56475 64759 84355 88941 95419 30793 44213 1297 55077 61329 92923 39440 24253 85369 64901 3845 18926 69666 32545 82287 97989 49281 58033 86975 24800 62196 87385 31340 94056 59753 73775 36649 12150 21079 42150 74999 9231 27441 23423 56463 53501 32070 62555 48207 26262 69649 11934 8469 82504 18234 68035 61088 71294 96286 73665 17221 93771 76606 30777 52893 26044 89403 42537 96333 56455 15930 75751 95145 73141 35921 89887 5249 17982 71080 79483 7278 19582 76577 86198 84523 29472 15551 88404 30653 12345 81601 47101 64130 85405 78049 11079 63074 40659 2653 10409 92833 52929 68556 28977 76383 94763 78717 60559 59664 66727 60049 86082 15656 51897 62085 59575 36357 2049 30714 80024 31645 2553 82090 27047 45167 42934 92913 25933 36765 36463 56301 83125 92100 27617 87041 18259 78011 12073 40297 22689 73829 20225 96425 62772 50909 81180 92280 16539 98081 57697 30069 31179 58081 82403 13358 37071 7657 89059 16754 19233 77567 30305 2980 70504 81753 15219 79047 6461 93392 24374 39017 11102 69748 2437 57547 39217 74593 43513 22327 57513 67573 73776 19918 30745 31409 96141 31799 21712 99599 65053 49769 97747 93727 65677 85602 25757 86360 50089 40869 75007 89659 55883 65501 30600 24244 28684 34115 76568 28375 46447 72257 33345 22293 14808 30611 72127 9049 73832 67299 52885 58025 17103 64684 56101 46953 58421 84945 16921 62679 56852 36708 18517 48221 95830 5152 29296 40623 81535 84489 98483 8868 16252 14928 62274 28009 68779 85934 12577 50081 1 86071 42456 89409 76511 26684 13237 82885 61811 8425 18259 81073 18899 72335 62567 14697 54681 54172 29818 60241 25761 83241 89318 27187 14081 55401 161 79073 84603 71874 57345 82517 28653 1194 89173 96034 35681 16308 1288 98817 99248 6893 86454 46407 66301 34855 86865 84353 82746 32533 41223 13205 35188 44329 11245 16774 76243 68184 76482 28653 83475 20709 47976 7865 72799 57125 72633 36887 32540 76569 4990 34797 58082 7873 5427 98481 81201 75257 44087 73918 13341 78937 31921 2576 65641 951 90741 70271 57216 96953 5987 39592 61219 89449 14265 15661 43008 38881 96287 62213 86561 31813 1609 85454 77776 41329 7483 57777 32330 31783 56699 48121 41759 8649 45407 989 38797 96763 27985 23561 18297 65745 69185 63989 12638 74115 16146 68780 4895 34649 845 80649 34147 70709 62505 47222 56609 81345 46693 65745 40989 64165 2798 96109 39484 14753 20469 74441 18929 92727 33413 33697 21090 90975 38661 58881 1267 34045 28053 21079 5379 52237 14765 57845 90385 15933 37977 30641 92471 68809 4273 64997 77092 89752 423 71979 86909 37315 40321 96073 99201 1616 63475 96481 46294 96159 31079 88397 7817 35732 60065 52129 26680 34208 67633 24389 34542 15206 35193 115 57753 42993 2353 80505 77932 1033 93285 12872 90809 25027 74529 76273 49234 89795 13896 82514 48879 79687 76518 7908 11296 93031 7140 99631 66982 57979 55185 22527 86273 29487 55016 63709 56540 14249 44921 51303 88787 67518 17868 84907 74168 39537 48921 41618 45049 60594 359 53953 34089 42975 9497 51413 30206 23847 45717 83977 28567 74341 93961 93733 9971 91933 79954 93509 37617 45506 44869 10623 64101 45447 16500 67758 56617 42915 96857 47191 41357 78094 94613 40237 61755 25665 83025 8015 74817 35707 83104 55317 30253 90672 17187 33693 69471 30185 30325 90305 34063 34858 86795 66577 77173 84485 32300 72129 75163 14698 15801 50216 7169 7299 92791 35193 14823 4899 55913 34697 67999 40968 60885 1144 6280 39029 29017 35743 48991 42281 71154 88925 17826 56777 26373 65490 8052 80471 72711 99476 14063 25665 61549 54609 10193 8996 16505 56467 60893 95707 91801 82369 67585 8923 54963 96041 27109 35090 38321 33586 75731 41613 34150 62381 68936 33365 21571 29424 37380 47027 43819 67405 19893 80633 66494 90885 24147 51515 4769 8598 61916 43297 18386 82371 20671 41505 15130 28219 10675 22812 45719 7577 79453 89112 95085 99933 93503 68168 10193 69313 61969 12465 42513 21037 78533 37449 21663 57723 70233 14245 82301 71190 68535 25289 53497 65559 22913 15709 38945 4683 15120 23941 15857 61053 85248 12681 82273 99221 59028 92745 50989 66809 88763 20402 41077 80235 10352 462 24625 25997 54132 18005 98751 83345 3553 52801 17632 51299 56557 22847 83057 70577 55619 3750 49023 93812 92689 73225 94464 94279 57651 38995 49889 48717 74029 70308 87159 474 2511 93481 22017 27241 15872 28681 69585 74261 36292 77245 20669 58589 7312 50653 7026 69413 40545 92705 91624 25788 49609 46913 47991 68761 82649 91165 72669 39033 57033 5333 21325 65916 47481 37246 93765 77025 32115 91363 13499 51089 32878 28693 68543 90881 27377 74805 96857 53193 62015 29425 65626 35404 81837 20353 57670 64045 3253 69777 8191 45533 77441 49873 31001 13645 84012 68904 53655 94223 88263 98599 86132 51440 49347 44187 94695 86735 85831 29829 69945 33532 29345 25400 48037 26732 75213 53801 86773 73664 83474 84833 81049 58164 72676 56249 29185 54384 45362 7504 22611 40474 25415 26425 85358 95402 50541 88135 68192 29198 43557 60031 24893 39873 31412 42857 97666 57697 80656 93628 89377 34288 29085 60753 26801 19316 44019 27825 3193 83801 22193 50938 88630 34325 70749 26149 25679 33226 92407 53673 12877 43826 135 98029 62369 78881 45603 25843 70222 45731 74021 73721 38001 82022 89537 71334 31611 389 58639 209 49919 64185 2709 86384 24689 60925 79639 64536 51925 91831 19521 32284 6360 36475 66870 99816 69357 14139 66605 74125 36412 48935 75635 12765 61049 88217 82946 81729 66349 92431 76842 81563 50045 29761 99688 61472 83868 57299 85757 33470 19345 37826 3905 88647 56213 93403 93263 50435 28681 49247 72481 25461 6641 88777 93846 81777 26593 85766 71130 84165 89713 99329 3719 84785 17956 24081 11900 43579 17265 47039 74435 83129 20429 8320 51742 96982 2773 54557 23105 62587 55443 7893 52753 81519 8863 26621 46452 38314 60685 50885 18984 74405 39688 66930 56402 26011 78601 66644 36803 6065 84273 69225 69008 18205 65853 2497 65828 74033 77073 15825 96681 41309 36891 87069 49853 22249 75195 89510 49025 28799 44870 86021 69881 14097 89317 21731 73981 9021 22353 45014 59059 80417 57113 79521 74073 6929 20433 52593 51454 15662 6594 49825 37409 2356 57280 70389 89005 12601 48859 21186 65953 51650 25168 80613 11297 85595 4077 67354 88577 56464 30761 38690 29778 70437 65665 82775 25597 94347 27145 60433 81322 10081 35065 54799 97227 22299 45018 74963 13117 65461 44207 98961 80742 50751 52065 18199 70662 3904 55579 49557 95793 25348 51487 65901 5451 40361 34977 77889 79728 20185 26671 49259 84140 25445 49179 1037 29009 43269 2124 7113 60581 69172 37107 32747 2453 18803 73234 20474 65357 72715 47061 41968 72897 93585 82467 34935 53251 71005 85339 37525 42723 3301 52596 47409 66921 77195 13486 11157 88759 49861 98107 76637 24603 5228 5041 6817 13961 10248 12361 91213 97791 69914 48169 58241 22721 32361 28435 47501 13280 18207 54663 74530 28970 99880 56549 72193 64726 11393 99011 89527 57613 12113 22693 49053 229 14421 79577 22444 80282 15014 23394 75317 52648 46011 17199 95263 31025 46204 89375 72861 29959 16105 90742 74085 62937 22465 57226 17273 48691 14838 58115 59789 72225 98529 25717 67225 73397 45693 47489 89905 83343 87890 27042 85385 28491 31013 21159 39275 72253 70653 17873 44246 60409 91875 40427 70761 31149 66495 59741 70930 66377 71617 62212 68194 47914 83249 14773 33063 75547 91597 66580 44561 11053 84705 99235 58444 63251 84981 74229 84381 62353 91617 17001 20627 97225 73595 47949 74325 49141 75265 91086 50701 17740 79905 6543 99082 44937 44249 69039 31399 38864 54473 7181 5057 63461 57981 47841 91432 87245 7549 71617 23421 49737 68333 22867 76031 90202 59993 46518 43545 76465 63262 46849 40271 91867 83129 91841 82985 55245 58705 33501 30712 42601 63127 36681 12957 30683 21989 58213 245 58405 88027 27379 93059 12635 55046 21773 1449 11249 58651 73857 21325 4437 26327 50225 31781 95705 34797 2784 45141 94059 87848 33651 52313 55457 54430 29319 90898 14259 49572 93601 68837 91023 48182 83823 13598 52565 10565 24088 95969 96081 40137 86187 41469 96403 49005 42989 24561 56581 28649 33242 56744 98641 24505 37525 21899 60826 70686 4095 14441 88339 41739 63137 72449 41643 11905 20620 53542 86037 30950 65261 46985 1437 36873 59483 77577 5785 55593 89409 31723 33499 88872 59989 45036 51721 15338 6089 85889 94297 3413 48125 52929 57185 85562 26901 18069 98925 46779 12407 62533 70321 80002 47714 41386 55382 76475 1787 32558 13302 35890 44203 49439 76611 8927 76261 15168 71457 31265 95233 44557 40815 69001 71897 80737 88223 33399 22435 72529 7629 8171 54165 13833 97409 10642 75937 67870 97831 13007 17653 40089 4927 7137 66104 50050 66973 3249 47560 58201 20777 74349 12249 83961 50213 64161 54620 62921 35577 21156 99761 61023 72609 87697 14531 91561 34569 889 94865 56385 78453 30095 80769 27269 3849 30385 3045 72340 42331 11939 40852 41553 61224 89449 14092 23011 12197 63891 66863 96577 85743 89405 3045 88485 82113 61953 88471 5560 77668 19233 53197 42516 5385 26497 23262 68146 21239 54913 33040 90302 15485 23184 97975 92485 59409 55364 47456 18413 11505 69461 20017 22309 39249 89031 60267 64617 701 29146 81017 69109 76524 11085 63033 27317 83295 34509 28066 60833 785 7593 12471 19849 96321 80583 27868 60321 82343 50356 68246 66337 75257 84961 62205 67223 37759 55204 25003 58863 82645 38193 7124 18619 68545 58125 99658 85830 84497 58384 60958 68753 3038 8336 58777 91545 50233 62207 79605 58417 33517 7191 84078 51007 87179 72475 66999 33625 70949 59001 24795 78339 25143 68975 18017 151 13775 69208 42654 63879 91183 61254 87463 64545 37135 90195 99228 79323 80223 3817 96434 50084 72513 77909 32166 99330 8294 69169 63809 3749 88221 7910 43933 96939 84295 32826 26463 80429 81817 84369 32303 70050 91979 78083 62031 11715 26857 54581 31330 3537 95648 21589 8606 66549 34293 67165 61377 88093 88789 83526 92545 2601 53185 53495 73148 26270 25600 7967 95399 20564 82906 28881 48575 70685 46626 89538 46734 1699 66411 76017 5073 9753 5525 99651 61093 5086 59393 18579 9455 44569 52773 64929 8313 5057 14210 27010 61555 94397 72689 68456 14704 72005 40169 79187 36080 23310 12918 69114 6246 60748 5489 65617 42490 70487 8957 5137 82220 43257 5067 51386 61697 1011 19517 39435 99620 44832 22777 92530 77919 4109 16265 45249 35247 31353 4851 59999 52011 7555 42825 89307 94259 55165 665 3249 15907 50593 26911 39324 55896 40897 80785 63069 90692 95592 70004 88509 72541 45449 40886 82211 12408 16425 3565 2241 47751 58860 81780 6649 3893 50546 54903 88253 41958 85103 45057 34953 93669 37971 68655 99525 93680 39807 39182 39469 70221 35359 13289 38209 28010 86417 17557 44117 6721 46675 90961 91073 94135 81045 22113 19025 8610 79053 47315 50300 22117 49485 52849 22944 85035 82369 28183 45905 77385 22458 24084 47963 95260 55321 66301 37093 37409 21913 53453 65995 66128 24498 75002 12401 96105 69740 86129 51137 58089 7581 60628 34093 36274 75917 13855 36895 46979 54315 32249 89548 13771 38881 30087 70405 51109 35249 29562 6396 83472 78361 97535 54461 13282 82498 61899 92021 46045 81140 35238 84117 78151 94809 76843 65849 50794 51685 1673 45245 345 31885 50009 73081 66209 11457 24481 68420 75050 33233 16955 24671 2653 41905 47565 37700 5957 40297 33038 84647 83803 25966 83840 80635 20417 78141 26942 57717 6645 58391 6120 39073 3473 86076 36721 71435 43265 32489 42663 35713 58062 97301 65545 55373 21071 47737 48549 25345 1941 94763 92121 95419 45489 67959 55341 22862 33833 71177 665 41187 97459 83535 26141 9657 95527 38533 73353 98115 32829 89773 83905 12047 65941 73465 94560 36321 13839 29735 67577 6519 87706 55400 49139 53747 63937 13243 47169 71885 44809 26089 11029 97192 58684 32007 27801 95419 22481 68134 14437 18117 24827 59641 43489 94901 99213 17589 73908 26963 30561 18761 85233 77556 75493 95028 23001 42305 75985 54861 98489 26307 37765 85479 13921 1708 93049 70321 83986 84410 45932 23156 10499 5677 20589 26529 85857 60445 63217 16407 36208 66541 13941 6906 30945 552 15569 19083 40097 1348 71341 35889 4373 68341 16239 56847 29432 9742 80217 94215 96849 43103 40324 80897 62561 79313 39328 80357 1035 64449 44609 84401 48323 21143 81870 72381 28193 18301 81692 38582 65741 54465 18057 57947 89253 26329 63320 4164 18165 48589 7435 29035 38266 70231 47859 53173 48174 81561 55720 43153 52820 25822 70447 55150 95467 18185 24412 48917 97233 8963 65618 55841 99868 78139 35749 70925 31569 30899 36854 38849 26001 69293 19617 29237 58923 5962 76429 78315 43424 7969 44564 60058 7740 48279 32258 52233 80997 58277 11361 63474 7130 67181 71783 56618 30318 55037 55483 48459 54851 63821 57493 21087 33533 13814 62641 71081 79581 91721 73602 42849 11329 41549 31591 62929 35285 79133 30965 15745 29274 58012 13641 61247 47105 37660 48705 90813 6759 28663 44967 42925 19105 39105 98779 1273 62335 81831 87550 35641 59929 70013 92785 88952 90297 2005 25992 17441 92828 74655 71601 90534 97000 69513 91157 89115 461 89442 60941 14488 22748 88685 37495 24128 71425 79101 6688 32565 55364 56020 98347 96082 72573 3547 70840 16113 95030 46075 73332 13947 27041 6347 25546 68533 89375 98310 33257 52785 655 51837 66433 31031 56003 45745 73155 89469 1841 87609 73809 67018 53244 79912 78849 92955 83035 76806 14181 29955 45205 12643 95203 59209 41662 89185 32129 24185 87079 4965 30577 31321 54913 68319 53726 57297 67891 98081 22561 44298 65067 13241 37093 34261 77648 62937 93788 51 45721 66795 58859 78848 63970 46737 2827 15757 55553 42667 97860 31899 77005 49697 4822 88579 94971 80225 50473 68762 99177 76664 82049 99737 1769 81389 24949 21233 77559 16107 58689 43925 21729 45719 91988 62913 18427 38044 80792 54495 55363 73761 39773 59121 39141 49594 271 78861 42571 52897 45596 29833 60953 47409 71606 87175 96893 51236 98760 23730 94323 78289 7794 51211 11442 6718 28601 97630 20369 93369 36713 66425 99544 16750 40433 51209 82271 55249 43633 28505 91603 35449 84890 2957 63274 98379 86665 86341 75759 89025 37732 27201 19345 19911 72977 44389 4461 69153 7385 6557 72895 59809 67771 93059 31561 6581 90056 32980 1209 30335 23985 65861 81074 28425 61704 96203 11691 68729 82866 14626 58825 54945 2257 51665 825 16780 56537 84071 66480 80824 86853 53355 20407 17083 35994 35137 4388 2179 80063 28133 29749 44131 20097 80289 96209 23587 99473 93201 37557 22129 60534 70135 90089 14614 83136 34469 96265 91173 38975 30151 95315 96849 17101 47660 68913 31285 804 55089 62937 71673 54718 36791 63267 26305 71065 50481 49195 84359 40752 33415 21025 16452 2189 68257 30529 20366 34308 16804 44873 31281 93665 53159 87729 76663 88092 20774 86459 92571 95697 2747 90425 44717 69717 97935 23891 34525 401 37694 39774 72024 57985 35041 49385 17589 63009 8757 56620 16009 8737 61179 57805 11628 57337 55290 15741 83114 78897 76652 19104 41897 60101 2549 84089 17293 32379 43245 46821 96476 24921 85874 77132 94197 10841 41597 14231 91399 13125 33379 14314 87161 72431 77250 71076 52617 18910 67253 75779 99761 35070 13943 59265 23856 48473 43252 55610 99253 55737 26909 87349 33739 86373 68529 29174 20886 56303 79644 42689 21713 57437 98775 14907 70845 40205 26734 13995 42959 17001 14957 1245 80625 8529 81129 82260 83357 81521 3489 15596 56391 21261 22785 9609 82558 73384 291 71270 68506 47049 93452 90437 43341 83679 86306 16115 43311 47497 71614 88723 96872 76021 36032 3712 31133 9427 25809 7858 14178 87065 67246 82066 85653 17041 56241 57861 69227 54325 15178 83531 85659 79321 41185 24977 73013 79023 48140 35625 58889 36387 97910 9905 74657 71206 64147 61142 66639 50577 31719 56157 85761 65473 38433 73815 85385 12960 79233 93432 50230 34753 33053 13701 11063 5126 38643 49051 90551 51759 29033 65631 50399 53307 66727 49857 17053 25710 5001 54467 76993 11305 89193 30178 43907 25993 74047 67958 57055 23220 61707 20145 65708 6301 61862 53946 14289 18167 30241 80994 98989 62877 48514 67498 68777 38574 42250 89595 83009 87101 97444 91111 98556 10181 52257 15006 64637 11799 12005 62537 99499 97265 14198 87382 76033 17259 91727 16753 77307 35849 45281 93409 55017 98796 1799 78980 32216 87941 61601 77151 40126 32930 51593 21539 90939 84042 41368 7156 10921 68573 40225 51492 87671 63639 1393 99361 98646 37937 56641 6141 82662 37149 29285 4101 86027 20436 38785 73569 82075 51993 99612 98731 58621 67433 58487 66357 88017 37432 14221 59185 38959 7160 63621 42267 69513 16345 84904 3801 29977 89083 5343 33661 76622 6084 71831 42771 98355 4683 84325 19297 13497 89495 16313 4035 14420 42205 90422 50665 51353 12566 60565 62066 30691 5914 73886 19933 7376 34881 3341 33068 32185 64033 24641 16541 17437 44177 7273 61001 10385 75713 89939 88398 75602 68567 92305 44014 1817 82145 29945 59917 73289 13873 11221 92583 90564 13644 44033 59910 78203 63033 27905 76452 9245 78257 92854 60465 13803 49569 53171 4297 77943 40677 6257 46019 54961 4307 69255 71719 31533 60596 78753 67533 372 11290 47665 88601 8292 42185 93529 3183 30217 60708 53037 15697 76786 85614 44232 81662 90543 84854 31391 94045 74505 60393 66116 86943 47981 29837 68100 83861 6023 66195 42799 9871 64249 75291 47888 41921 75352 64959 63329 79429 83385 28289 14305 12245 48091 51959 9616 4899 42055 41517 78651 47415 88949 18913 1039 99411 34223 61191 58041 29436 6423 44797 60579 8289 15069 42400 9543 67297 38301 75920 52871 38443 12341 84403 26571 90379 51484 55985 29575 58601 77330 53571 24470 72647 73959 88923 37281 6453 4709 17567 96465 59579 44127 12827 11361 58254 34368 18558 6314 71723 5857 16714 85049 61783 40373 5633 60351 47673 5195 92789 66010 40777 12227 10443 85827 66289 99645 12483 32577 45123 3347 47659 53093 16121 24601 57003 66385 62352 6808 56022 2981 81279 71983 55695 75554 33057 6838 4784 57513 76789 91977 49713 69536 76629 28227 15071 53094 68977 65807 48595 1901 30857 14850 993 35628 58293 37769 15209 9699 92081 47641 71854 97560 17405 47545 10397 26351 41965 64487 95458 46005 9261 29589 10553 79814 38977 38531 88567 66164 86203 79585 59819 31721 29979 2199 33859 10226 39803 18843 89597 37318 55065 82737 4189 48957 16508 97242 23658 61698 87717 13842 32873 43456 52826 46761 69461 41314 45081 46617 93789 54137 91056 61326 9323 81253 35511 51337 79321 52289 13089 64913 21047 1993 6693 74103 74732 25255 95867 29745 72073 66779 19577 71439 20929 45685 77753 69745 11801 3997 59023 71841 79169 4377 44001 59762 95665 23175 43091 59463 75073 90299 62710 97575 58945 53864 5505 39824 11261 5945 41458 15598 64129 91719 26253 81927 85052 85590 94639 80481 63661 69634 45904 66592 61694 70981 79437 82288 46317 63309 83181 89017 67913 34705 64469 3981 55437 93013 54737 68152 91789 56545 1405 74417 92157 52929 5029 2810 88705 62919 11841 29638 51257 15962 59455 47304 58079 76323 35221 94553 80291 3608 10097 71831 84850 42044 20963 35597 87553 42377 68400 59223 78641 29969 20463 30745 83257 95693 95081 16193 54845 27363 773 82259 56807 34471 11485 24339 48881 42190 22003 43337 98433 50281 42341 34757 98501 4113 4809 90264 95453 94703 47961 13189 18397 33678 71641 61747 52654 65030 32311 11246 22845 26823 8915 85465 43861 91437 39775 52252 34825 5885 75319 75369 94933 12861 77073 42577 3417 9337 3493 85854 6025 5023 8041 77426 43699 71325 58285 5738 22311 47293 80557 78757 76941 35303 91191 90017 70504 20627 88809 50330 99029 65045 78628 65415 30521 98338 91310 539 37705 60149 35923 94973 50537 99693 93315 84457 54820 48129 79222 73271 95913 51026 85919 43905 59870 34399 39709 3553 23874 68116 17335 24705 90389 65835 56073 67617 90986 64417 64587 5321 29961 82413 70890 76929 26389 57121 33528 27479 68329 26021 3081 5245 27276 91437 93977 89433 37732 82816 53725 11529 78521 77825 94004 13945 64047 63759 81487 58542 60976 91521 50837 23926 4458 62507 695 39055 32438 62137 90268 33919 24481 55433 20437 16793 25747 20913 54051 86135 84993 91478 94702 36743 13751 73083 21224 29601 75057 67585 65654 77727 86393 51717 75008 51233 67161 23301 32579 80989 34107 46486 11198 76532 56897 29821 72046 50566 25273 98865 45180 90317 1124 83857 37346 41761 22617 75937 82051 87141 66861 36209 8669 68584 6721 45464 73130 13010 61341 60062 65461 48083 68074 66756 94487 41081 13639 8320 35759 54553 67838 87170 58479 73395 49323 65505 27321 91715 75003 72194 41633 30917 19465 88953 76241 77261 38331 78699 73013 31459 55853 3864 67629 24586 61759 46025 44884 9511 13769 99561 82649 52141 75633 69965 37269 82161 62612 71362 6775 21329 409 10885 32065 50629 31907 19605 45751 49377 62231 11932 82057 95510 85415 95961 19903 81007 21617 32484 67175 41057 769 47363 57213 48077 3601 42673 66415 84865 97481 46065 23457 14211 19214 42145 94931 43241 81036 29793 72720 51598 30193 6000 1412 31493 47593 50847 36299 14059 38556 53465 84131 24163 75103 79964 58241 45383 10477 47410 82620 5543 42209 42486 93073 46464 81021 12231 39645 19391 89873 49902 79690 44367 41557 31325 55123 94827 92011 16591 64875 55060 48028 92381 39239 53432 43418 46311 53206 39489 53149 61473 23583 42257 28934 66205 37559 68644 24133 77869 77205 17517 97377 36008 99457 71345 83266 59 63073 81257 51385 99480 32628 13990 11128 91329 90109 37961 33057 85521 63697 69080 77592 60161 94167 12724 55851 45636 43813 28333 1516 50459 74866 77061 85083 35857 61017 31705 64919 75769 84761 67671 27009 94383 86129 19369 39975 47403 68161 57430 15925 69679 61544 15441 37955 54073 9807 87517 65727 85145 53934 98747 3007 85928 10761 76609 9435 66555 93489 67067 32192 46225 27297 83548 53293 68321 31421 49345 93641 17521 31428 98485 32205 24687 26773 5545 165 27797 50350 65164 86617 55697 25111 41614 53301 51691 60016 60395 79923 3761 16023 65380 41130 82057 82465 36425 38627 87396 54185 34581 38624 36827 77811 82292 94954 13689 14095 12065 89729 75107 54770 12529 41533 53532 15957 41497 15521 8676 51578 21691 6953 15455 38619 10173 77782 95969 68617 7039 1781 16112 68435 27663 63195 56253 75387 4694 91765 57505 7345 74323 44231 36177 21323 76438 34467 58371 58541 29011 68245 69251 38205 10526 47713 48077 13009 64842 40449 43238 73245 78706 54727 28639 92699 42397 16575 41917 80054 20828 50417 18420 32395 47547 39695 99059 4763 42633 42065 19290 19069 62395 98079 79466 67865 53571 82840 28410 1402 85793 46300 88207 38321 5153 85853 87745 35329 7517 13425 18073 5670 56939 55393 93591 52517 69277 48312 58547 47123 33811 85610 10004 89749 37905 21881 45113 17626 76 98457 26559 81590 50593 99221 67099 31083 77269 37857 24489 24425 70502 55234 90273 19166 59323 62139 69837 11149 12797 86320 4432 94463 43500 70307 13943 16208 94703 57392 64068 13047 28145 8553 49118 68817 65321 10738 52187 4593 86762 75429 65343 84353 68575 39915 1059 18197 16076 33591 61409 54298 76409 91217 3917 96081 89557 28819 8827 93411 87365 52715 48391 89775 12251 5426 15361 29281 66849 63942 19113 8741 70073 73231 68505 37644 34561 23289 36027 26673 75939 75659 15585 71353 4137 44685 77165 50215 68426 19349 31901 46551 4641 58029 67855 51719 54047 93497 97573 70833 29114 48525 17967 13670 77699 64777 76367 66649 22401 94130 34769 98851 44954 44739 36297 37969 13446 95497 42945 8267 54397 17969 12049 98131 62346 96176 47540 15995 81091 95329 8496 40300 20969 7965 32533 32474 98027 38521 41247 38371 67978 76558 34157 20917 18509 52289 23866 66209 62927 89503 70711 48779 72820 9929 83144 51534 30023 76773 26441 51897 75177 8225 93437 60044 76570 67253 34185 52065 12030 96215 41749 10893 59657 9055 29156 49993 2089 60210 95645 14420 13639 85569 52333 4543 11385 35315 78027 82515 79793 57161 91401 27745 66759 40838 73873 23365 74213 81963 31717 67015 78977 80605 93673 89545 98933 49597 16133 65668 68723 28385 38521 7439 79041 27281 63237 6961 81113 4614 23532 27242 25765 51059 74605 20777 5675 97523 44893 22777 94793 15419 20683 70835 88827 44421 3491 53385 497 39905 90144 23648 88950 70465 24715 62427 91549 61375 63551 23059 56931 37797 77057 33454 77701 24361 45436 78045 78917 76537 67413 85373 70823 1819 79362 28965 31924 86761 39713 34496 40673 40110 6067 605 27333 65163 77013 47144 60873 28859 58049 8215 71609 32665 15753 26419 13013 51141 89499 96348 22637 12492 56115 99313 7312 14069 92891 92525 8052 99361 6881 79057 23845 71932 79281 81233 88372 39485 90966 952 339 35783 45491 673 22773 43899 96353 60808 64185 11431 89207 60261 62461 56434 88897 81640 84555 31291 1588 9012 89185 17033 49345 88729 27895 34205 30127 16895 74911 75994 67429 99328 87340 53061 16721 60538 48932 84818 55093 54421 2795 79874 94733 11273 7755 43 19289 78065 65825 3213 17855 29526 7175 2492 72953 10378 29393 19345 89739 16673 28361 14185 78382 58205 13433 94749 1839 12568 21355 37745 50161 34201 34309 83749 94929 27953 85121 36533 67404 54838 52693 9377 44871 84201 73497 74961 29035 71457 59698 88778 36469 86168 84593 77153 73901 68112 59389 66475 22053 8723 96904 37776 58536 28993 23637 90431 73159 28879 66669 70391 46726 96995 83609 6649 50923 23922 71182 28621 40129 8259 87859 89563 21243 32280 9745 75697 14069 59213 32042 94437 9063 6253 45921 70691 55565 60193 56239 49134 35169 15785 90993 39493 92545 24031 2913 98721 16657 38781 11674 1133 54733 82612 96333 27209 17285 25840 20177 43761 6407 84711 3013 45733 72431 25337 22885 34385 2461 63146 51909 5053 88857 89760 64053 58617 67793 79010 25961 76397 89962 13028 45917 88121 44109 3711 15273 84548 50989 58458 95858 65774 30038 95219 23993 31847 69422 61557 24707 48849 94827 29192 92185 36324 89709 43063 60707 42880 50947 4036 18228 6905 62175 46464 54797 17285 69857 59235 58732 2074 63430 38836 51746 18883 6855 94309 54443 6415 44643 10081 94951 83731 11205 4283 97409 38979 33273 56536 77762 22373 65903 37617 84059 89505 9921 57475 82417 10813 36246 6112 92782 35345 26393 7695 9389 78099 58237 20869 33426 73537 7953 14881 82628 46295 33507 99322 76623 62675 44438 24323 97068 16682 42779 57063 61027 73262 69685 32513 16435 34998 7040 13953 24729 26405 78811 63728 42952 55019 36201 64871 6390 80151 51514 81131 4185 9682 59081 44135 65312 26857 94708 49491 86120 53920 54295 2649 82329 75201 65681 35216 18511 16256 47232 52110 83461 82897 11765 79185 56257 23799 71518 42198 33554 11713 50643 51945 98974 24401 25987 72344 53553 3148 89609 65191 77112 44550 95467 92345 80551 15087 37985 93865 69266 44592 49693 19003 45295 4629 84065 65941 57679 23074 87783 23961 83099 39489 1204 77165 19347 27897 18357 22569 42189 34121 56949 63843 68235 78515 45458 68737 29776 81281 57761 76132 12793 23545 4833 89217 45885 993 62946 4755 79393 60221 79834 19054 6463 77327 50877 39953 48520 94025 94968 69933 13953 47840 94582 17953 61389 91291 1414 62212 52766 94789 76470 92121 67767 97723 83998 46785 75385 77161 76761 85415 57106 46577 14457 12409 30177 36177 94978 80129 20881 28351 57188 42860 60993 10669 33150 28221 45845 55733 2101 26756 52346 88734 75105 47555 17777 67875 9649 14669 54800 43212 44721 63153 45751 71080 22604 73665 65329 77375 83638 21153 34026 22487 3224 52209 75747 36057 83863 51317 38761 25315 55793 26551 88569 17117 50593 49605 15717 90814 93705 82129 33969 62673 26583 80465 29505 64907 43189 61217 63007 79025 14293 45172 1749 41283 12337 1506 86639 26031 18891 59853 63824 82063 98875 22289 7133 20472 71153 42851 6306 34809 8755 5346 22157 25077 58241 77345 24025 83361 92747 87313 76961 74871 68309 46915 59431 69014 85465 46087 4493 83929 90457 34919 46155 69831 61605 21772 4689 41345 89017 34702 18953 65566 30547 7568 18564 51622 46456 99005 35815 65535 48764 88867 23576 25081 99311 62597 20406 19515 92017 85858 23085 32993 76552 69518 17129 86777 39633 44346 78693 96379 83400 91686 40951 62256 62399 81794 66505 44249 8609 26753 71231 75161 52059 35433 28409 16954 36635 44710 27411 8641 1381 49534 67585 42114 46880 86632 21943 30184 29889 61879 71182 54461 67197 25671 5161 50067 99475 5333 50913 34853 58818 14339 49315 12957 82783 23488 63195 39959 22801 3049 40561 51595 71867 68217 37935 35614 16933 75881 38023 14785 85245 65037 57997 27476 5551 85365 12533 85659 63567 88214 48449 99818 10401 10342 32465 25297 98939 70145 15884 72389 24805 98737 26585 56145 35487 11453 33921 51701 72071 37602 92449 88644 6113 49239 98927 14087 443 58919 4819 69145 2080 22881 72865 1935 25787 26968 30937 11994 41801 58061 17411 86876 13593 1342 5309 53057 12998 87471 31183 49143 64001 5143 32922 86749 8650 23301 55555 76136 80209 23533 19397 41725 17397 68233 93253 57957 36353 5493 45233 46729 3269 94668 54620 7983 83075 55749 58313 55327 33603 45705 42403 52193 61095 7969 27733 10609 39707 46881 19553 68717 37585 54219 69285 84181 56891 86586 45219 66695 28577 26758 77669 88773 44953 79605 60253 63479 67077 71613 36299 79008 14467 41049 17136 37121 72710 63914 65793 37208 55521 92999 22639 56891 26033 56766 25614 85443 33068 79535 56171 82087 19367 24133 12865 19084 70505 74182 45525 71657 97641 64517 3677 95407 2363 81313 61145 49690 77703 84872 90181 89527 51997 56251 1295 99049 75619 87126 26393 377 44201 87003 51253 3933 78481 19414 82901 48469 6261 70731 71394 45673 8514 18513 84473 55665 25631 81598 29735 48766 88585 440 43769 14096 82849 63993 4743 37231 33543 28409 53697 77711 24930 42449 75430 19284 72257 2109 49939 84127 48841 95060 77015 58155 12959 2971 19424 49527 32797 92455 45646 27372 1425 63545 43105 53350 8505 51098 88609 34965 22909 6601 4873 78825 7541 63877 22743 47317 20202 66021 83373 8169 16469 12066 69620 74009 12835 6515 56827 29505 48689 81677 21301 66407 32745 12171 15976 44993 47369 41585 99728 26507 97997 70281 39793 30861 76919 83752 28851 35697 82076 30237 99621 10860 30630 68599 63938 21865 77065 52725 81589 62513 63357 33 52986 91913 38281 58603 55624 7975 48243 35957 16625 71882 54555 37281 96866 43385 90825 45755 83001 29311 68781 62404 26131 38127 3963 98377 98810 71419 57953 19587 71417 68887 93425 45165 96173 11735 35734 83926 93594 25457 90836 48591 85025 11489 68273 53101 61680 18789 38852 35465 62273 35891 96409 50446 91841 4673 52471 15881 1819 55383 37561 70449 49585 90305 44752 21845 87657 45231 5933 6810 71191 52054 99124 243 52009 95643 76993 59129 23929 42617 2653 32275 43247 76274 48175 96881 46576 28571 465 81265 29977 344 71022 40244 1074 41164 50858 23649 16301 16989 34895 19284 62347 20407 30273 39877 78849 5525 16817 45713 34145 31955 94045 37633 21424 68436 68021 65933 94910 12547 94090 94363 21777 84669 57888 11182 53866 90361 1179 94945 78971 91761 77245 6853 78613 60369 88007 5451 27917 40612 73469 83532 84541 30937 7494 50273 72829 48238 68885 22065 97041 15345 77181 14864 46823 29228 96097 2375 23942 90105 80743 38830 88363 69097 44715 40210 78057 6153 29435 51147 36636 3494 73557 93365 27968 98721 51073 97185 97118 62017 99699 5041 67803 64326 48197 8366 76579 40194 35053 33089 72889 37041 73143 85903 63190 45733 64881 65112 65807 81671 84555 65182 6113 22146 85974 86265 3518 9109 18227 67605 89437 46262 5121 35685 26961 49755 73949 78434 15743 85113 87779 32008 43706 45447 95653 54542 37370 3285 89620 39745 79541 79975 18475 15884 1045 90595 96497 52799 61331 65977 86742 74238 48139 57004 60121 35245 12481 22181 93945 49737 69905 88986 28951 69471 24874 52049 91173 21457 56632 49175 15916 88265 10347 77426 3858 70817 84993 17412 86563 95438 8728 68881 89228 59497 7450 67388 73185 25001 26742 69107 84904 22735 86735 83503 5059 8073 18024 54497 63181 38352 91218 6991 91530 87151 46617 30441 92913 2085 65203 35549 33921 2300 26980 30365 99813 53095 81377 60393 42285 30122 62112 11477 4007 99479 73615 92071 8239 29258 19175 72721 19485 49694 1064 1233 89121 90458 98681 95585 94823 82817 86439 19585 962 75034 81096 51277 6897 62474 79265 79221 95735 72621 44731 16082 93708 42745 27341 99019 6389 45780 19099 32703 8923 7977 46493 7342 21454 69872 73201 34151 96290 15531 16697 46137 48565 40633 12860 17041 17739 67801 78763 95485 13438 9521 77409 35993 78569 49599 1276 97910 37301 94623 19213 22939 85325 14947 98426 12316 51793 79505 47500 9769 46417 92935 90229 71029 46414 62582 52789 33383 36993 17559 45209 19293 78003 53841 68081 90251 46329 78073 47859 48561 94834 73959 75441 72093 63593 7331 45072 67428 42111 26139 32737 45605 2193 18731 81810 94107 12288 26131 54513 40393 90499 51755 64924 66775 33654 17951 41095 27626 23348 39711 42001 72833 40595 31268 94863 30204 64955 55210 8370 93761 13265 18506 47714 15826 28651 67329 54845 62659 68228 68221 42518 11556 38055 84782 82128 10519 4719 44673 25689 2288 70725 75677 33251 64603 50341 68844 99573 28841 76856 17385 96215 56102 66073 1465 3425 27939 5217 37501 50359 21649 15313 70985 91875 24169 46625 23194 83879 46883 47895 34193 25321 56653 95455 41118 22423 43169 85416 4133 39621 351 60033 70713 24591 31697 22145 64802 75347 15717 12161 79844 76259 36205 11879 20753 62307 53355 17614 35773 97649 43665 76916 21753 69625 80929 84719 88647 30537 48149 9691 76868 90018 42569 4493 50976 28449 16677 95821 74387 70209 75225 72713 34718 76905 53035 39355 76113 63537 75377 38722 95571 21863 37621 8785 33697 92557 77035 37631 29745 53947 32111 22951 75230 9588 9362 36233 75683 15249 27805 23875 62117 68440 1178 53612 13821 2110 14759 63500 11311 17941 15185 74979 12572 63329 64239 54523 50545 8503 14799 54674 72079 72049 84039 6673 9298 40737 11298 90472 46517 21881 52007 36045 6561 67363 70041 48530 95550 24619 89165 48793 79895 32789 955 4555 5441 8161 50405 4945 34192 68161 65503 9853 78802 5358 52091 42945 86631 99412 43073 25275 44889 86658 99003 55461 977 25171 15891 68777 56201 80737 89679 56080 4597 30845 66033 49377 63287 1219 89275 59667 83073 64576 23961 88413 75117 84232 53401 40575 52101 18341 10588 21501 48172 89496 57017 73714 20435 3132 35817 65849 9733 50107 11689 72641 2369 51805 19451 17581 48381 7370 69313 29886 52771 99551 45079 281 46637 23965 68355 41743 37126 26513 14601 48037 94135 49273 15691 72009 33804 42076 19654 20917 92005 89059 99913 81713 43201 26875 31231 49593 9057 82551 85402 15596 86253 9857 90259 10729 53977 66170 20614 36569 30035 20071 89965 85673 41999 93005 90215 10642 82115 66129 41449 659 50377 65949 64985 32138 78059 27939 42525 52113 30063 41932 329 73991 17969 13485 79372 83965 19105 74234 20161 81558 70187 33965 35553 91333 33997 79997 21423 47879 5473 30231 88227 29493 89057 79325 60693 1984 1486 47473 74074 56737 74059 12441 78041 40340 74229 43501 1167 69847 81319 57794 48059 40917 38029 35473 30441 11027 55609 45137 7265 96182 28673 65445 23153 8472 36055 83755 83296 47953 51413 35341 50409 73912 14226 70493 63211 58153 60450 52346 83869 51544 31943 54475 87069 56341 38699 50723 15150 89487 35605 79685 6252 56663 55448 81765 46385 57381 34137 47751 79797 41715 57937 4487 21697 42907 57751 55248 42133 55245 13661 983 39761 67653 63829 70445 15421 89847 44081 13745 35649 54166 32607 32098 14939 39704 66553 60062 81913 9601 43059 70771 12011 57738 13968 77465 42661 56223 86149 98701 23369 40625 98803 76415 88293 49121 8068 12050 2721 19179 44822 35217 66255 24485 44284 46645 71649 44158 66718 52654 10547 38488 77509 81412 36577 41849 25271 69370 24719 9327 97907 42100 90826 99053 59571 90795 23703 60801 43857 8713 93618 58037 25047 80241 34394 81151 31496 46469 62354 6945 50369 98144 23663 76258 54725 33021 92317 46953 82081 90574 69066 18813 98033 32146 48817 6113 59031 95201 47145 53541 3271 30043 63745 47 29821 3365 97353 36775 68301 61085 88337 17063 93235 71883 56205 33541 65097 31985 38062 62227 17889 53057 38922 67189 83646 14701 46692 39147 31791 89667 58753 39617 39826 61706 60966 93715 54794 11012 12473 13825 4191 79572 13400 91471 7225 77945 30805 72629 39771 49470 50510 15473 93189 98417 95418 79785 56283 66223 66695 51864 32761 2839 88893 81589 21411 45705 14564 56265 97557 83633 59675 839 95313 35381 89731 782 71833 23323 9041 90838 58668 69345 65427 27363 49281 74376 27321 99126 9337 31149 26067 6475 86060 75249 80037 37706 93925 13799 79209 75685 94815 12001 60555 54725 38866 44926 58353 3723 74887 50941 75864 89861 29238 80977 46883 93990 6367 6333 57700 85004 20225 10359 90913 78379 19714 21661 35049 89137 45953 36483 35956 92696 56865 49623 88517 38913 60975 2484 69455 97341 53977 67729 97638 88244 96995 79861 84904 59411 74709 83277 89876 89857 16161 77657 34111 85081 49873 51905 11157 25477 36398 61287 63737 6821 55099 6891 65379 9502 88847 43941 86880 89325 76131 31477 28395 80551 82593 84399 6738 63586 89171 58992 81835 14661 34609 55731 18260 30984 63371 67955 1021 4097 76889 10457 53420 36177 12275 9571 13915 19776 21229 2960 15727 71437 10415 88597 95815 25981 65781 99601 56158 72789 63285 7297 98209 51565 84779 52565 53233 43633 13003 89494 14523 11577 55890 14761 46076 3539 24588 91699 661 38321 59471 35311 79152 12481 79625 99603 54573 34693 16181 24604 63671 10571 11393 84729 80915 1709 18881 87677 35627 77157 35021 92769 25201 17137 65926 36681 92130 46962 87439 28711 48485 19129 29280 278 87325 38977 67045 31887 70788 52809 7399 91398 65345 88991 85921 95065 12269 29162 13965 5523 27719 15203 67409 98717 33857 76333 50377 35453 48041 25430 7177 29171 71179 31226 34390 79323 58077 75989 12113 24361 86963 86806 2923 8249 85612 11401 48928 31771 40258 77199 2649 81513 40493 3303 97329 61562 90429 36745 65881 3223 12977 83369 43137 14690 84767 40321 92821 49499 17009 73422 33142 54818 25329 21363 31472 39925 73953 73610 86065 77517 58377 59713 7329 55873 54765 47569 19105 42273 17294 70503 48113 90081 95407 4417 88721 68993 879 84995 62537 58940 74928 94219 68749 16929 23953 58993 24602 50800 94717 62037 62077 78176 57359 87189 52251 84645 95212 45163 34776 29229 98737 13693 92921 78476 34100 18801 18921 71038 47850 48528 30853 92193 13767 52274 81093 31879 68805 73249 37763 70785 620 64804 69762 36445 50179 27441 51284 60098 56925 70344 21587 98655 5249 49135 27741 16621 33881 1717 28004 26297 81889 38616 2213 42339 818 82705 84595 24742 47493 79145 46439 69485 78749 79485 15218 51401 59601 67024 94798 88876 15317 38803 76227 35625 59879 85963 98705 95397 80292 11825 88598 29961 31988 76985 62276 67622 29268 80745 47497 32977 66305 74373 31307 38361 80713 48923 9146 7337 31429 50012 13881 44817 34325 34037 90351 83070 13027 66921 25809 56689 39287 72937 45256 33441 88427 33128 46212 45094 54589 16003 77021 33701 49453 76313 77513 67061 27117 77307 31607 35535 90385 33676 41753 31613 4244 52112 72649 12301 32088 4537 42469 82303 7412 68909 71875 49442 48424 75783 43970 48459 46895 1163 990 78218 21839 77147 8160 92961 31318 13914 84001 51061 97371 3839 51963 29749 57716 89723 43807 31121 35161 16446 52224 47301 56088 90391 91081 60429 23751 55377 92180 52622 51329 13097 57502 51777 7394 51437 73403 77621 57731 59618 79437 84629 32965 67729 84580 66601 2 68457 81417 34061 33137 72647 80045 8033 57093 20207 79108 91681 27011 67838 69186 23315 58597 93745 87358 5307 99041 72181 56988 66246 6494 35169 82561 99425 98077 40769 56705 54898 29894 24921 99408 10870 47669 53979 54641 93965 66703 985 10366 34632 37901 53515 89155 99222 60656 29661 28308 44125 94621 92857 53747 40115 44977 80741 28287 15781 27701 76443 72991 3459 62771 32605 73371 47487 14514 16011 96513 64943 80954 70617 89204 80363 78489 45128 98696 65135 21954 67729 50945 39708 42479 88301 30673 73697 90211 44891 30169 20955 89405 43369 75401 52581 20393 86769 901 59785 80507 62247 14529 17069 18948 55070 56439 75204 32009 52521 46659 74200 68028 2755 45368 39471 87 19227 10945 41697 68919 64181 30225 19850 64985 96365 53721 61121 46795 58343 10969 55299 35215 66709 80915 74769 78278 88641 20329 70175 94789 64425 2501 9213 29414 56861 41425 93915 69737 77651 8441 44932 78941 58407 77473 93023 85444 97236 21575 57590 1165 89417 94981 21317 71936 40988 63285 13361 82609 297 29403 3019 88690 53729 4629 51035 17869 69105 52143 48109 44845 32409 66164 37249 45642 78057 8621 63369 79077 58127 53965 24807 83655 26417 20374 92963 713 63337 71985 15180 2615 85801 16116 21669 82126 17649 83981 45650 96047 56240 57121 36819 35497 2089 13019 9591 23807 23426 72921 48186 58767 5879 45577 87040 68720 19781 23809 99922 74146 10705 91309 6899 33525 18203 14789 72913 39731 68593 14158 46301 93177 74838 30752 49103 4919 58112 5021 91585 68456 63845 91086 71751 53101 65701 48958 51173 17025 39111 79809 89813 49498 50445 85918 57133 29123 37981 59929 13793 2981 57263 83325 93367 337 69697 91965 64073 35521 51595 20187 48346 64473 58359 51986 35189 63573 79483 32325 9889 81958 58623 73769 16265 70276 9661 85687 87193 12276 50345 93653 50589 13135 99169 18748 8157 54759 71169 99915 33377 53455 17751 63725 69675 20199 49730 65174 38525 73841 16393 37426 44299 8857 46481 19749 58885 83191 1419 33397 94315 99313 46633 48741 43485 70070 56872 39499 84061 59965 85259 71050 61721 43349 7668 32416 26913 75649 89085 71289 2629 1294 76231 43336 3525 58865 41209 72620 10689 10369 73122 18025 42969 30835 15417 94415 68925 93148 92275 12513 46407 70199 3479 68845 94025 12629 63597 16914 26819 86254 23139 90831 52065 82293 37431 43565 24062 55945 28806 12669 73027 15665 46625 52367 82006 11245 7045 68591 57959 65857 89965 90711 97399 56711 48589 49489 10324 34958 26833 95489 66250 79822 76043 49670 6768 6372 45217 70803 18937 24753 58095 22540 45741 70471 72809 63669 62555 96801 34753 4657 31329 63352 39903 28258 90369 61839 43072 53249 86007 69405 47396 70263 85399 38135 96929 43695 5662 16724 63409 57655 46047 79885 27249 55569 59329 6479 84045 83939 30761 15801 10377 57370 2419 34330 4993 30053 70553 53122 76671 61189 20278 19710 20448 77484 39905 5621 22357 86259 85641 42557 22386 83143 27953 5163 68009 98861 59137 30701 6692 14083 80465 99494 35268 65653 66842 99745 14571 80642 62607 69777 83980 71323 76257 7507 52995 5088 23029 30961 16080 2446 64225 41109 29357 88556 12325 44969 42505 11201 28243 85895 41986 11869 69255 23031 65179 63192 8957 21523 57241 68929 26209 40660 28072 32753 47518 80849 46370 18906 42753 16050 91455 89113 75781 79950 61833 57012 88268 96595 5705 56871 76249 70091 58134 6745 78967 66449 25280 69839 39418 16691 87143 92107 89259 81053 42057 37401 80014 95513 7670 64559 47905 51233 81063 40039 89873 25576 11529 48501 3593 24083 78 48001 46753 30709 3761 93893 8425 79217 92018 48241 67761 1264 466 9514 66793 64805 45006 81667 98025 61478 27663 22223 291 96800 75784 7060 94701 48633 34938 56953 90857 55217 82006 74247 87481 14887 86115 88821 30765 79692 4515 83141 69209 20045 22528 71222 19591 26083 83188 65714 32706 55795 77556 44988 37704 6471 52207 68881 7315 99345 89444 5943 75599 30076 20229 74977 37467 85329 98279 78145 30345 18897 83124 58099 86489 25849 32572 97657 17478 69603 63341 44347 257 67299 78283 77552 18968 73226 478 13635 39978 39345 2209 38472 43897 60649 95150 6627 51578 22541 47977 24489 93875 59710 12641 89213 26817 11885 91373 49823 62342 87767 14949 52697 87329 45806 63731 51351 78045 44641 71484 35086 93725 67105 64101 46929 25289 62655 46641 25796 75083 24093 23894 71687 25029 23929 45193 60814 43641 29185 72819 69825 19816 1219 42689 80893 73633 69205 93993 94945 93513 53425 50635 83538 82915 72120 85186 19525 15976 80717 42871 34026 57783 29985 65409 91402 41365 28425 16260 45710 33185 68177 46234 25083 80231 45000 25046 41707 82880 19795 62569 24805 16124 5248 8386 64294 23049 22461 1634 89417 58897 56878 16217 52439 9537 78523 48328 47077 87233 99529 28537 47555 83388 80525 91521 76611 25116 57827 74129 72793 51109 90233 60938 62580 72339 79789 79255 30329 14849 10191 74097 24033 55030 33201 25731 97841 7969 39347 38645 89753 66297 81652 37207 85613 75206 40605 37525 14625 16965 71841 15011 79935 41989 56263 29679 23503 30744 92818 16392 48481 37526 75375 85080 25514 41153 36991 56763 80549 81908 50857 42289 46182 85125 82116 59373 15734 493 3959 53473 16861 11056 41761 45316 1495 87014 32393 51347 2907 50001 30529 29293 68973 72041 29193 72647 90159 46383 51625 5748 42836 76829 39281 17073 21274 85459 56275 82233 85466 84434 1875 56112 67400 29933 50253 62345 17667 5332 66077 91881 9378 84232 1670 16443 36465 18390 6333 6273 16409 73611 10243 66999 84627 62977 35181 35525 40583 37985 7250 15409 77884 45690 89605 20413 99046 23658 22879 73935 15895 63961 98367 39126 97529 86461 55045 53358 95468 22241 69966 18280 38882 93087 79545 76263 57845 25077 66571 31885 59420 49697 98381 16235 31403 83569 65967 41673 27802 14451 53841 68692 89825 15001 54153 89165 48062 54053 7480 65641 24097 64281 380 28075 19947 41185 34861 46817 16324 61141 26309 78001 17921 53293 10239 50454 4905 95043 53381 42807 76076 81958 65885 48943 86342 55637 43820 20881 54983 15607 19897 49313 96197 91659 89861 47141 98193 84548 19040 23183 62720 6628 48258 15617 48389 96069 52299 59127 25886 36617 39271 11276 43339 63949 84085 38589 81859 14515 31515 96173 94482 97981 78258 22269 66657 59234 83095 8025 56205 95253 30757 47017 93632 13313 87875 1201 75303 59849 31063 95240 99364 11669 47367 10221 89245 14589 26617 66908 36898 56644 52349 32681 21440 74369 33519 96149 95119 82321 44581 21171 3509 30443 53351 65853 12517 95864 34728 69985 52737 43821 19303 9189 56799 97041 32812 72531 23323 8633 87154 4202 25673 48437 62016 93387 16157 68002 84481 17589 21899 25261 8261 77997 96658 30602 29297 89903 98537 12057 36833 89289 10673 96649 19207 32513 79603 90078 69639 48223 78867 77260 89349 38673 31889 82897 36156 79571 47265 16369 94487 93057 48977 33583 36143 43585 10540 68401 21525 94409 63705 50629 12857 52203 54585 46553 27877 56813 53943 7980 64609 7133 16738 81593 84131 96039 80561 40410 98401 16251 66961 54489 88740 1912 34241 2930 13491 49127 51063 27543 48023 56517 22327 57697 66637 8293 50369 14044 13569 72440 87705 65013 18735 36402 46727 29861 97269 67720 57332 30635 6047 58273 49124 61151 10949 62647 6971 82177 96129 6529 51701 29521 95975 10081 35801 65193 52993 72965 82187 49016 33770 97804 3235 9601 60153 80516 84969 96749 87982 91229 64499 33071 11122 27492 30545 12701 77183 83644 53413 81473 75280 54847 47637 5097 58925 38775 87340 2143 31986 78767 28072 75856 86111 34129 13459 91593 87880 77569 99237 42071 38512 51143 37396 45175 59825 98873 63563 5554 17697 91015 24333 37789 91945 7575 23853 48767 87520 90859 55771 17867 48815 27771 68376 77127 71793 10207 78299 68335 58375 38721 85473 35969 39563 7121 76668 11671 20393 4704 74705 53701 28656 20135 72321 42196 45956 37793 93299 41489 55480 36254 85487 24292 89691 96313 56385 82689 33131 14209 21877 22768 24461 18145 37917 44369 17469 34365 58989 41707 34853 59453 5069 67309 32845 21413 5265 82640 75870 50739 59215 27897 49099 30873 3723 46109 71024 34041 64252 96737 73905 93525 11215 42181 71805 50770 96331 3694 33770 14611 9112 4949 6473 46398 49518 11724 10273 20387 70541 13157 56421 61154 58544 95260 69890 56689 89308 70521 4988 9048 67505 92121 1287 50689 15543 70019 34117 75377 65110 20674 1496 45687 45925 87290 10585 87249 23601 8679 43556 70851 17281 89631 34081 82121 86581 17591 8509 82866 59257 11297 23509 50957 86113 34404 57841 45747 16363 13651 27555 60109 35037 23421 72115 95460 62611 59209 26433 34295 68047 77785 94109 20421 70367 76142 25368 2733 10538 87651 39471 13763 66069 11532 69177 55062 31268 81477 28205 85490 83365 76049 87663 96297 55399 80092 28511 12751 56537 10895 36985 28215 24736 55053 7393 85333 76031 8641 44287 92240 59761 82465 16250 58633 85263 49025 66453 7795 53372 57738 17469 19963 49412 50317 83423 66837 66017 91355 78324 74873 11474 31905 50904 51969 24445 70049 38559 60966 8723 90441 38641 7327 69299 71249 47750 2998 40750 18297 85713 49385 50950 25027 27396 53505 18639 99145 59051 76485 47041 93041 78415 3297 25001 29385 57261 59102 57131 53729 57201 39879 85585 42279 9345 72945 39361 959 63243 8193 97501 72865 68712 4567 10812 54967 33292 67145 99861 42465 1913 88773 22818 56515 4729 94953 27896 94995 90715 10611 96673 48007 64094 61279 7638 54382 62249 69958 9473 20502 62977 27847 40407 17172 17883 79907 9727 97101 44141 43080 47549 41026 27697 66017 93829 46571 44129 30204 94028 89992 34426 90093 19803 26804 2555 62698 76725 53370 33643 71745 77211 42366 91187 61709 9121 75607 84965 96767 20583 39185 10141 95937 2 24315 89153 85649 7825 61563 16345 33469 30819 94441 38279 98579 92357 92187 12953 52333 72453 87821 19779 63945 24164 79553 11457 373 75023 70905 33382 33181 48602 61189 2907 17903 45124 31175 80937 60399 62257 90545 24092 9091 87510 86757 12344 7761 52485 43577 54277 98669 69377 90949 62533 40575 98925 5041 97795 28076 57357 54027 82537 64803 76876 83261 26271 98775 21677 91319 20185 20433 88193 68109 83882 97372 92573 57897 92473 96117 35301 96388 20797 46599 66617 15938 15302 2422 11697 93965 27200 96059 71591 50265 17895 90942 31773 64718 4491 24852 68670 30796 46856 36048 97053 28193 16623 47348 7549 15656 34787 71913 70797 71632 2592 64649 39204 90456 54617 14265 9953 82136 86273 69730 20363 83198 82321 59375 78825 19228 59847 61929 73400 8148 58001 11169 40225 51174 98438 86525 5533 96113 45382 22859 89840 88562 44301 43809 28209 96457 35603 88131 91807 73909 35425 43602 82978 4350 25660 12475 73289 16333 89701 26363 95942 99617 63467 33797 79167 66191 57517 74817 47391 915 5817 99305 18455 45402 57628 43415 77077 60175 75997 23632 70415 91182 59564 66474 68817 58780 27244 61795 39953 68873 13406 39379 27533 36361 35208 30676 76913 22753 62865 46667 32485 75313 9781 20905 35933 91437 94369 76177 63672 42385 95585 76489 11366 54265 14839 59321 7858 20889 42175 72557 82834 20355 1630 15139 77025 70646 69571 80648 37885 39604 42191 15613 26791 55617 91602 74959 49993 18598 28716 47085 57024 22061 4369 28933 94641 79465 75445 66699 2949 70357 33837 69645 75937 83936 38228 61074 17425 1001 66742 69641 11329 84959 42220 94925 10893 10455 83886 41380 56275 92815 95318 73009 13585 22315 85369 25203 35478 77407 21533 9953 6209 46305 32281 60770 67831 74890 37783 85459 66197 90272 80022 22997 33559 72680 51983 30991 13958 26719 73423 18065 88553 95879 73376 72705 53770 46963 63161 18268 46101 41365 13165 8521 76821 28545 40337 24909 85963 23049 66317 15458 73811 45976 33697 83381 45329 92717 46609 2511 82177 4185 38739 23263 52049 41745 956 14838 3541 74919 29208 73589 64087 89041 85393 78305 65465 1349 99569 12616 47173 35594 4149 27489 37028 50587 29757 15206 62729 63138 72510 7107 53817 5456 720 38033 56788 53615 10889 9650 30819 34730 38265 63853 80676 98797 48611 4029 48353 5979 42577 26922 1006 72515 48641 97951 339 99969 13881 96618 86373 75759 63533 83777 5973 77013 21655 49450 9129 70095 56583 8993 58343 95383 2117 61001 65633 95189 3743 67572 47505 1435 43775 77141 28489 16176 56310 3577 30222 93185 68897 71186 65185 22525 11811 36078 30389 98585 2187 46121 35488 23084 96889 5977 38797 67745 52981 80187 15999 97337 42720 29323 23471 11793 79917 82428 61552 53247 57761 58923 20533 77789 19501 57327 71407 1057 7239 10151 84017 19269 95417 36455 7001 29533 85699 66305 11427 5777 34629 22997 20257 61887 39681 46958 37451 12461 52449 19201 66349 23913 73538 66451 276 15471 32519 82817 69604 60473 38418 64252 89351 26017 45515 51758 65226 70089 83859 92185 27880 18193 8705 47121 8297 51153 93874 45351 40943 15470 25320 56387 87855 39701 34613 57318 77935 99361 68051 6923 62822 48625 24097 77671 53361 37086 97933 69807 86897 95590 86635 50331 45871 78650 21265 29407 13858 62847 95463 17165 85508 6489 59304 36589 65144 34882 37185 59937 67753 93468 49169 60174 59369 9377 61425 1199 34681 88980 36548 34612 49359 43409 50454 8658 32073 46999 79929 82629 79333 38929 31011 93761 46535 953 19316 73527 84381 37474 97422 29969 66443 689 55288 11654 54013 31784 28761 51431 51087 54984 27309 30316 49569 23615 21548 33747 18311 3418 35358 51495 25505 93969 33117 23617 68543 31975 39034 35316 25781 83397 35227 86255 92961 11651 81035 38139 73546 45983 46266 59451 94374 27235 43029 67619 52321 53038 93545 86493 9249 59935 98709 7058 99309 45085 24222 47072 23531 59262 13025 30116 16732 42562 65311 37501 80417 31549 91865 16989 6314 25697 96384 67292 26094 62345 68625 78907 70685 44631 32865 99219 99425 65445 38461 34221 12089 17515 37631 84823 23869 9603 50175 27309 24747 95211 38507 92901 91730 72493 81747 99793 7809 85653 95267 90389 50604 28193 6551 69647 76658 52661 85141 8427 33057 252 57918 71541 99691 90378 16186 47042 98083 417 38098 92387 81475 61417 27507 95445 15282 11857 75637 26437 44130 69735 98876 95513 88175 13075 44092 99745 21458 41757 10992 89927 36575 90 69627 91907 46026 26841 74513 62490 98560 1613 51041 38815 12825 64893 43542 55725 13349 88546 84830 22026 69435 68017 41498 80865 20919 49873 81174 81485 49237 18792 93945 37949 1869 2885 43258 56333 67282 96711 89885 48972 1108 1257 81165 36691 17180 47091 65707 11643 71521 361 72883 62379 12801 97393 79687 28161 90458 82523 83637 62899 58016 84439 7288 81350 95812 24155 11777 4771 72837 96029 39308 75761 90181 36053 74480 85308 94995 89973 2141 33321 97657 7053 14431 83425 36374 50401 98887 5357 74995 53393 73317 32041 17431 90461 21915 74529 80643 51852 44185 66677 27609 74279 19652 23967 86294 29153 70001 52766 71548 54953 83401 93497 36705 81684 80609 9401 26589 5612 24899 3292 76616 94466 15901 85685 8145 52991 59678 99425 93479 94663 80053 13777 58397 72261 41408 5913 62897 34193 71193 92253 81639 35159 42603 63261 3621 24129 75299 97045 92261 26535 8869 6073 8159 45097 56073 30807 86961 95029 60769 497 85053 3265 60621 63558 33341 22807 81405 31123 64064 28512 97486 55169 9622 30966 96784 67381 73239 53086 62974 11493 32591 54532 97138 37925 43073 32058 59425 75969 26929 58941 31297 60309 7097 77491 16319 26849 62577 34555 55039 89285 50381 37407 54492 39139 4595 21953 44331 47794 26945 69886 60839 58533 52410 48512 98391 27153 78768 58005 60365 27337 89473 88513 36455 97274 48152 42641 71982 86269 76338 1797 88196 17979 48449 16759 76831 95709 33971 48081 43932 35801 94391 60717 58689 46593 43705 92961 32925 69081 58699 91847 5795 57444 97681 82229 5515 36993 65847 23859 50993 82979 66390 37229 51733 50075 11735 80011 34893 7901 95328 39161 56925 74299 79378 30960 1553 90945 93195 24521 81493 31699 71280 19867 62113 19631 34727 51794 7903 33833 76873 23137 48165 3309 95382 38249 61957 64182 44235 86913 20544 52345 53581 72961 77623 20260 63419 50429 31611 5141 4825 77281 36458 6633 32209 53437 34177 62022 42940 55145 26547 90313 27547 79661 25053 31617 45809 41027 50494 32161 77960 99749 95017 22477 58503 98939 60378 15486 81701 47568 6642 81311 16507 49191 47843 71649 63813 99292 56609 72999 53666 49757 29249 79682 81017 38461 24905 83261 48378 28730 51793 25283 96597 50131 38497 17503 14981 96665 31985 52507 4810 58049 93023 52929 12475 63166 99367 64927 27682 94867 59578 26408 56365 2857 29420 88837 64801 27010 89890 88776 76730 94068 34487 44631 5510 63629 19385 53997 66750 17573 38881 45315 42700 95867 72833 79517 26941 8993 30975 85963 21025 96365 97316 34755 31604 26313 67629 37665 64515 78385 5484 39669 10471 55413 49200 21073 45377 72310 22753 64288 42512 83795 38344 76670 45673 45382 1048 79337 52832 73669 38145 17003 87778 56756 1563 12018 7025 64009 13877 74937 91544 62615 82507 59046 70737 84015 81655 10623 34103 5164 35795 32931 52385 95173 54385 32429 59067 47899 29741 83869 85049 42865 6057 21209 70953 63009 20735 14417 2803 42033 593 23985 1177 39201 2123 76925 68934 13955 48526 20905 28037 78141 42390 75191 90241 88233 57866 10253 72458 63623 15895 22847 43965 90774 92569 84513 96331 43147 88113 66936 36134 52497 60077 74767 50657 31877 19647 6797 48640 93430 90009 85384 88783 18889 82757 26887 50289 84186 68799 5313 35078 90721 69035 44128 48957 67718 35456 13081 14049 36949 89563 77039 91037 27516 37807 58734 48081 21093 40250 59035 67105 47392 84516 47132 11060 57911 31579 44801 17229 16592 407 72696 32033 6817 48183 11985 74655 94848 9172 72541 62913 2789 64553 43768 31234 24813 28751 17509 56661 61774 64651 61033 40768 35232 19328 91099 51434 52209 58381 64799 81296 76287 83692 1633 46957 35405 36929 93691 64523 48202 34103 50393 21673 28937 66966 26873 78873 38545 23979 72101 23716 39437 43799 19663 93648 1599 46533 7685 31589 1178 51641 7831 62945 72298 84868 29621 90123 60633 15631 23801 18375 71501 99537 3845 74312 66074 64365 65059 73777 57473 92337 30881 53756 76033 5971 58245 18379 90230 36482 71437 98333 87290 81909 74700 75749 39393 61418 77761 43650 9845 58452 91885 14015 32857 7227 11189 62241 49875 30055 76563 93245 41729 30425 15681 62791 21105 53107 96839 38129 65845 52875 11905 63600 17537 6834 73421 47171 29849 36988 74140 16078 36189 8881 65667 73630 48485 59743 98244 17610 25283 95569 19719 17317 94063 9747 35241 74465 46555 18649 25265 59648 1429 36209 69631 14347 83709 20422 86364 6927 58058 53745 41418 38606 3873 50093 83665 49897 95305 60111 99833 14498 43621 8809 65809 34456 98629 70151 99545 79343 82644 2203 24239 81972 38027 65824 82087 13009 44873 21961 10481 55415 97021 61711 2356 84676 83386 913 62446 3565 18761 76683 95785 96631 63518 67174 19272 27989 93870 49595 44817 8239 6641 67891 67157 98898 67773 58414 13635 76123 47491 95535 75213 26699 28778 94533 94857 9933 45933 78223 84006 23169 68309 84407 57099 60416 2941 49308 86950 67253 69243 36193 69649 49905 7961 89136 12769 92174 59519 18609 25947 65204 56499 84591 4655 49647 50341 78477 37499 75065 37111 53285 76669 60178 64227 62749 48680 23188 99976 72556 72777 41793 64953 78433 83917 16659 5561 69889 19641 87043 99156 92289 49479 32849 813 45409 90935 48577 51173 34935 18208 15917 80833 6870 93585 25314 37825 83399 8681 67201 60983 51328 11989 37743 66187 92861 81117 72695 41965 74049 43073 79471 29741 16513 92055 89448 69465 8645 29345 48625 77299 17893 36331 53173 12734 55603 53681 21505 14187 2657 1055 3409 99653 42503 61389 55105 54451 50081 54333 74913 29705 17461 1791 1958 40353 4325 7075 45156 66115 99805 39463 41159 6921 32609 44177 88885 33862 65909 10005 3630 92897 49033 7041 66067 58586 48314 95545 3181 63309 97401 53823 43521 85290 88513 47584 75101 21349 39585 16401 31938 70023 20410 223 81893 86685 52977 98945 79587 58838 20869 72245 81737 78414 3000 60937 31697 75053 28754 96993 15345 10583 16129 9189 91245 64302 29476 75585 65376 12271 81934 44161 67208 75431 47169 36126 51913 77371 41755 74833 87606 92641 1419 50629 71013 81311 65031 97347 93155 60924 23048 62425 89275 79903 32457 56381 13633 50131 88909 36449 70683 39308 69389 50957 34721 86984 98785 99235 43184 85006 8388 76090 93196 82467 64835 25249 40615 39235 87139 31055 41169 51038 33393 84433 16356 61845 58499 49054 59805 14029 84491 70186 28067 4193 66905 92241 78733 82320 23927 82897 9341 86837 96268 39018 52327 86523 68441 25309 26971 32254 59003 33633 59894 53209 77164 17089 70345 66090 48717 12482 4504 66721 83243 4185 84065 13717 72285 47089 60073 25408 50383 73329 16745 57349 93739 59069 15043 37697 95497 55827 53822 94718 63980 38085 72001 70973 95963 1946 50089 66385 96251 27809 78312 19077 37805 7909 8033 86670 80647 67809 62553 43369 68691 37100 88213 89580 30403 92325 40665 347 2822 66521 78121 21711 44549 85193 83229 5601 48878 88981 80571 7039 73893 84961 63985 74570 6258 44353 71953 35639 42691 15265 98521 68833 37787 23393 98821 23375 88585 72272 78636 50621 47665 79107 41956 59788 91763 68885 699 26105 35833 17744 22617 5337 26991 46577 66847 79407 90305 20433 15473 88110 76370 82203 25451 90065 16932 17133 16539 2578 51373 31245 5123 65883 36889 16169 2865 59763 62419 18147 3213 177 27553 35939 16049 25669 20390 87355 28890 98839 30369 25969 12213 3689 2278 25108 48931 766 75173 73469 30593 54519 60597 28485 52961 58759 61181 63641 31149 16665 32321 66053 98483 10657 79555 83294 85679 24357 84223 72879 5209 85897 41865 7861 96741 98977 21289 95339 6287 69271 90945 70814 46417 66483 91257 41891 55047 20289 37462 52889 78242 46401 55362 55837 12305 1733 49023 16925 32613 84061 15044 40819 58833 63849 95709 88969 80145 55801 22761 9259 66303 85321 60189 4332 73053 70545 82335 27317 84285 8453 86049 64698 13728 55167 74881 83145 4498 38549 89411 28131 93427 12447 35933 51245 64993 3001 5707 45327 55637 8669 65937 40450 65361 22627 56241 11813 36773 22201 93219 15465 76174 8434 79948 93485 10138 46545 9851 19265 87015 80065 75937 14746 9801 85203 95467 23216 9539 83242 72529 36427 76873 793 5727 87751 36607 73139 60125 67863 4113 66461 61377 30646 95130 34099 3466 75463 78961 68053 23565 28079 36389 10871 87997 59053 30389 30740 38637 34819 7646 65593 45013 11502 60479 27905 89349 53650 90391 62008 56632 72033 6797 76309 51719 31484 95396 3873 75118 78577 80269 9437 64031 2899 61916 24749 57657 81869 42130 66437 96862 16929 32655 64645 82845 42109 17096 243 65024 98887 91505 83115 11396 38028 79330 57237 44043 33825 62089 57582 55425 91101 44165 67225 20115 47553 31634 75524 14046 32187 15633 92961 85333 33425 90935 15501 92827 34665 79841 49818 45508 82892 70679 88205 73558 9066 69907 77793 68787 16735 86149 5977 77384 20275 37233 70461 59831 21827 3831 45157 97637 44522 51504 79796 68337 36979 35165 80211 45124 50451 1253 38835 40629 83323 793 43395 40571 27873 93899 29210 63078 72494 70881 18309 8123 56838 26032 21493 80090 91242 90360 68364 40502 20211 90753 78443 29553 40233 14105 16047 93288 61279 4087 56131 74549 29596 57600 63897 45190 83749 3503 50605 38725 77215 48070 95109 42249 80968 69823 8122 47631 88833 61186 63995 89087 38409 56618 66209 70660 55877 44900 41032 22075 74124 58893 59455 97873 25799 31426 86535 51934 85969 4701 57441 76198 75837 18190 16145 65143 87057 55523 19644 1929 51434 81473 16465 43557 96617 56034 51009 63957 76341 67053 56861 32957 3729 21365 94216 41601 67089 8089 11197 20517 49412 51849 92801 8476 38193 39124 73959 22141 62261 7081 7697 92792 83093 8229 97405 11417 88082 79539 60425 20841 14095 18019 3681 36809 19937 96202 7253 7561 3865 74089 34603 95905 10753 90473 18681 49459 28562 29489 63745 99711 37780 3773 92613 64049 63713 73401 63810 34211 65281 70006 7333 5161 42085 42401 31448 86203 87793 39972 90161 41089 91917 45811 29373 27115 44801 42681 56525 50277 38949 2526 57351 15506 55541 46965 63025 88699 75493 26688 12718 8525 5193 76486 1747 43627 24412 36367 24529 49641 35555 41281 82671 54804 91681 87143 47948 77162 75373 12791 5133 86937 62254 90349 75368 29317 81371 27337 32337 19170 78617 77961 7274 2868 17841 40289 7849 52961 41929 40337 1943 89111 49572 28573 98287 25825 55619 64961 70966 57985 32277 91777 87111 4259 9570 27605 43944 46134 9459 81065 37658 66553 38937 81957 77889 48 62912 19647 83363 75644 77566 5802 29687 64017 63009 22295 33589 56187 98670 20693 35333 28354 86603 96638 52869 69891 77869 61942 34589 76509 31069 57608 94357 89641 53861 43313 9696 66719 9505 69683 72540 32553 84936 52675 56353 1115 56141 60313 24224 637 16552 75243 37627 22897 19025 12415 43801 48644 59513 25427 53372 88541 77047 10049 83949 70209 73467 16970 79679 70577 85072 42211 28533 44021 9243 54355 86061 3863 71402 45557 36255 82675 35083 39421 16021 96277 14409 97964 6133 97789 12945 2656 49783 2684 66267 67920 85871 85273 47870 76353 83498 36312 64443 50125 965 27180 51929 95634 96156 59421 3573 46742 94225 97131 97439 85457 84249 66438 26165 29053 63151 87977 82475 70273 72257 39708 28919 73608 41534 88373 35551 79160 95533 68205 28361 38873 99956 50607 73845 97657 85371 74945 3643 70732 38719 70689 10153 65881 11891 32037 52545 34017 70707 69489 24637 13897 98626 79768 78167 61948 41629 37061 92608 88017 11229 42815 38636 61671 90235 56744 49947 51227 26081 3748 937 21729 34989 66657 35759 10157 39675 88492 68207 94541 7689 98933 5929 42649 53877 23812 49669 54729 33405 27601 49679 75345 90337 84963 96507 16629 84086 10785 48961 53455 40619 63553 45214 19537 27561 64687 21681 62180 49553 96647 56961 33025 34759 6687 34032 73697 75209 96841 36498 99459 7998 73165 94986 81065 58907 55361 56165 60689 74447 90761 73397 1020 29529 54881 32946 3612 16172 48631 86585 13548 21361 54837 98543 26393 88815 93722 67291 12386 32292 28008 51112 74311 56881 66649 3935 20134 42808 33793 60280 84153 54826 67685 86401 48435 54994 16617 76168 56937 66108 4668 83761 33279 75833 5328 61761 87049 50306 60273 85937 20177 97199 94039 67140 21169 20659 58124 96703 32333 78840 27457 5924 44087 53205 3142 36879 59325 74345 49859 80993 75378 42530 7677 45129 20953 50711 49129 77623 50527 54295 32025 21153 76217 34233 825 57173 61251 43842 60421 34441 62245 1863 38179 52527 33072 99647 82454 85661 70877 90399 26962 65915 43054 8345 85553 2330 38074 32941 45465 79121 88891 61981 6605 82482 20100 45568 74129 14201 10603 84845 60888 57025 57137 79226 41627 57197 7038 97597 41860 43432 39113 8549 67590 79084 12639 41145 77071 23448 56955 97060 9981 67277 52925 96281 1018 58033 35417 30766 26905 68321 60567 44343 82666 78913 21551 68836 69161 45817 49153 8373 44745 66044 87014 10435 20870 59521 7169 50340 46561 79672 75901 20039 73569 48205 62831 10206 66940 30433 68361 38213 54033 31481 86945 56372 65365 27627 901 72078 48395 66627 46500 1329 91842 40843 18197 32473 93513 5451 78309 63757 84695 41987 51917 33233 7831 54621 80721 6847 46379 71215 12547 94621 46256 70085 89983 68662 83501 62100 55213 79817 10651 26273 86306 45991 49990 68913 53601 90637 78441 70479 6159 77792 79838 21135 48049 46352 18310 50234 7031 78185 68957 8121 75274 51565 11933 26137 73403 82514 11945 61106 29265 42017 90075 76741 59461 26505 71328 70272 44643 2314 33173 94250 60432 35889 49281 31642 46577 24150 6725 80031 2915 83459 3427 43569 67567 29661 43857 79279 83967 78349 31400 62155 4685 6968 36881 15472 19637 69675 72821 85793 75350 28563 95000 31098 99535 51529 10193 60770 48985 70885 52211 70358 8516 51089 88800 11185 92953 56087 51399 81633 11754 46761 30043 33877 22339 14645 69989 63885 93143 44687 61921 95957 386 55011 19431 98649 44697 5987 67693 9451 18536 49654 83141 81683 98501 78165 83947 12161 31210 74453 11671 26431 40731 21755 96169 15005 61525 85432 18305 28634 55317 17149 49745 88625 49024 9482 95437 75614 57151 64121 84890 45552 17442 10540 91629 89055 44643 10209 9940 58920 20181 72894 60827 63217 57783 99795 99277 74529 61969 21621 44425 35913 27313 8393 61523 67357 41118 40447 98071 63933 7503 91100 98645 30837 23817 4898 33501 46005 65195 1057 83319 15529 39035 35757 76251 7391 72961 4845 50913 21079 75969 83597 9793 47125 40759 23752 87829 24243 51113 85403 40001 37025 34785 30791 59835 48884 79271 87143 96201 8459 55263 67083 95551 18876 81819 89246 77751 26646 87165 47741 58407 7707 13236 49383 53301 87183 68845 48701 93947 3777 63631 35609 46320 36339 63272 83611 25561 97989 98541 51897 63916 9183 4929 87618 49045 5445 50576 83365 71225 37298 79499 14731 82278 45154 12003 28225 52619 85973 23641 19281 31857 31289 34054 61231 70045 69273 42593 93371 96311 57601 58635 69592 39047 39209 1209 65839 26582 15410 45404 21241 37017 86547 32867 71959 22781 67975 26329 89531 90581 72809 46961 73627 47385 5241 89349 6990 53623 69383 85176 28674 97009 44485 51 28187 26853 51097 63747 89015 25891 77365 5667 67719 31561 113 38337 5727 80573 79109 23701 32925 12426 76705 90489 88753 753 80533 35683 34145 59025 75773 25207 2185 76393 449 11185 97665 98257 76385 71201 62005 8159 75221 28452 28859 92209 83654 81113 61254 66312 74351 64347 22906 24149 94557 77756 35909 70253 32021 29585 77903 96625 7965 60410 4762 26615 67249 89953 92649 28361 58529 39689 68755 69122 53887 77731 17213 78113 77237 81015 89152 75817 11295 54423 125 83809 51190 75845 87260 93741 86682 90120 8209 9679 22251 19857 10499 86266 40345 34757 2050 61597 79537 98833 93393 20574 10505 77659 59426 47769 99408 13086 90263 16943 96713 36638 60162 84772 77377 69811 10873 58303 62183 30457 52349 33745 39285 88009 56203 60749 37537 88297 35887 44534 64113 207 79161 36372 84994 14168 7992 62491 50895 47946 28393 80461 68043 91550 71153 84344 50529 65754 46429 65325 11267 45421 64995 84449 84335 98886 83617 64751 60185 57577 51636 73041 39008 22061 30851 22139 27351 20025 7521 53809 86561 62911 82145 63849 70399 6078 43344 95418 11133 20297 29863 90186 67345 34324 76224 14497 18530 77489 27699 69495 30215 70781 92953 32054 60765 58179 25413 60784 24657 30677 87763 1049 47066 98217 52759 26192 65433 7171 70008 1993 40641 52434 40497 25085 61072 67184 31193 73651 44142 82455 90447 49225 32519 99682 25807 21507 40383 12779 47241 51237 25721 25366 16040 29825 95379 59303 97365 70190 38827 69968 74745 84491 29022 6709 6155 75435 84944 43004 69664 24465 16941 15849 11585 79965 96836 30371 96578 90251 51887 80049 66202 43554 76933 25873 29033 12084 9855 87632 72897 80424 40893 29153 81590 97875 64096 65377 6705 38601 32357 4825 52369 38337 40681 89669 45025 38283 90690 41097 99639 3 81625 93481 86268 73633 34739 76709 65623 51891 41510 36266 18281 34199 70657 61400 32793 49221 66245 81985 64271 79163 26057 49641 99975 90253 34876 33677 6601 74754 76703 63181 95829 77537 32101 29787 22787 35061 92437 67085 46493 4747 12052 17259 60333 43332 97545 7263 46477 12287 21439 8728 78405 12979 55915 15910 70905 52121 45341 38427 78599 27869 30669 51205 11989 38554 20653 11917 48617 26005 16547 67629 34129 46225 56223 86893 54613 72947 81569 64929 68882 69851 90235 57569 81325 45361 3961 10845 48017 70401 89223 13477 29745 27953 96514 27053 35719 25545 837 12563 84989 95835 3665 79369 3151 94489 81019 26717 58881 9470 5649 61057 20073 91097 98638 76558 46872 82315 69083 71441 21041 11181 81841 19161 10239 20439 80989 72773 41679 65744 41139 56225 6257 47230 82488 6591 26337 37721 95767 67576 86338 51847 90845 33444 161 79297 66854 45991 68096 15579 14875 41549 29839 42891 28685 40402 2933 14845 89133 6141 15643 13624 38660 20945 36633 24225 79633 40677 4157 13529 71306 45263 96465 84180 87481 68082 65429 6339 74504 3657 16836 8974 41397 80721 61073 67775 45281 52723 57185 20945 32968 95207 17192 1748 62901 17849 13958 37884 69331 52721 89194 88239 14990 1276 73361 25429 33900 83361 6171 23562 78378 91475 23179 72657 10522 48727 12283 8289 99695 46495 39213 55041 35905 48694 57033 37477 71033 26108 59081 61865 96395 11977 85904 91105 10120 31132 80133 76741 94298 19041 99493 76375 7614 93321 61033 46544 82057 35691 82987 91299 17017 30497 5808 8401 61323 61101 53241 42881 59705 49991 93384 61825 50032 22945 96446 93594 75264 85825 5113 31881 60657 55216 85567 34414 65995 30648 14349 94185 94163 16345 35317 55141 30562 14271 78011 4214 24584 62835 1004 48897 46097 13517 30686 9945 81009 84105 1393 51489 11070 69921 88485 94887 23677 27357 25633 17601 51087 23883 33899 65825 55498 22175 52769 38105 53281 78345 36203 30229 78792 6793 97967 92085 54110 98099 4203 68130 12336 30289 10447 29786 56249 40933 77695 3005 70544 47241 50589 82046 71145 53353 24675 98361 12081 39619 94529 90745 80145 79714 36045 33121 42721 61393 43842 79163 5953 18157 50925 36409 60302 4417 30337 58599 48156 74926 47681 73481 86661 2201 30879 82891 26169 9419 75835 35437 36289 6513 74839 65315 83781 5595 99508 69702 62215 801 83937 50741 40979 79805 12316 89846 96037 99001 87645 45793 81373 45009 80236 37745 20973 76653 86609 80381 97136 97186 78549 5750 19969 75553 32461 1409 29071 75489 46485 56705 24129 34683 47179 87971 64231 14217 49405 49729 31509 55962 21800 47297 54969 44158 76709 75687 43189 50194 17094 39457 8257 76953 72337 48207 26849 86449 24634 15001 11019 37031 98625 19746 67985 26715 81771 41093 56365 71881 5784 63511 86637 96411 56303 52779 861 88169 30559 42653 4837 27889 46168 49373 59329 69327 97513 54542 21369 76921 33793 80295 65601 71836 27617 73921 12717 43981 35111 28249 93251 42992 20835 91013 81001 80713 81915 11825 28845 22965 88311 97629 58732 32089 49217 4641 85448 15939 93757 64369 29841 20171 51275 5889 81167 60737 49775 3840 27273 73897 43907 42329 76565 90601 7409 67311 77209 25409 19579 89977 7821 22527 87561 2745 14491 17781 70081 23177 61203 68498 61597 80736 50689 42305 83929 62019 60385 9144 65377 99637 39454 81963 64633 63413 5017 36037 70769 44681 61129 7400 72799 50919 72075 96157 44388 90960 42785 7033 56763 97060 65112 97105 20921 86969 66356 83277 84499 66413 99438 1317 77933 12511 15075 78386 2929 51774 61337 41542 29289 26955 62847 41569 44501 6889 14333 76997 40497 22017 28137 17433 67281 87224 53164 30169 80777 14357 6964 83233 17165 27849 64757 82377 89257 58720 15663 77885 87566 87937 73499 17008 75681 32073 2092 49782 96183 27148 9119 8618 5940 34572 12641 40327 26961 33685 42887 13057 36051 77271 78987 77831 99649 56563 79575 6459 44141 48247 17680 81436 32699 62039 96125 17058 33130 96854 18000 5565 54817 97263 97809 26619 12001 82053 32405 7849 1319 57216 16989 94098 90465 82913 45139 24075 91809 23716 59633 82517 96037 95235 72033 85492 25655 46309 7918 22933 12871 83992 88777 1179 42769 98706 22279 70270 94343 93689 90573 42802 61204 22264 48209 91279 24417 80237 31340 51458 53211 70401 49237 34889 9253 36525 4453 63821 10086 26810 53481 15461 67937 30350 81968 97089 11357 28487 44307 2309 38359 65185 16603 12109 99933 92168 29255 53051 77725 70731 31655 26953 10617 99568 97488 19013 14645 83485 15827 78826 92249 44880 4697 5858 20117 13968 44136 17649 92937 96062 16857 53921 67155 72093 75784 43695 10025 73 47023 50359 94334 15233 37553 80866 34400 17609 33464 5536 26272 89297 33929 66691 84527 80625 98103 61731 8794 94589 83191 85833 189 64576 84597 16269 24653 12760 55112 36071 11765 64622 48753 92641 38385 30038 56775 98339 36403 66033 51775 44627 65470 34218 88100 40585 61857 94189 57581 18926 40875 95239 75077 63212 42979 9489 433 49939 91081 898 34961 86709 81677 89266 19420 2396 85918 50157 90442 81719 47289 71137 59378 36528 12609 34041 97573 2449 26174 55841 99977 86807 63341 73517 93817 1240 31265 44677 38626 81905 31919 48240 978 75077 98833 96913 65121 17637 25127 67180 70881 18045 50337 1601 98794 38182 16585 27195 5027 96589 91725 29803 17772 68633 69276 23806 74625 3778 40749 45553 58253 84830 67812 99065 4413 49127 64218 55415 19169 39661 14827 16631 52126 66161 92211 5369 4056 55929 66419 53847 76222 26141 78037 11111 1258 40315 92938 72778 15799 92905 48018 4423 58643 11567 88123 20023 65301 47157 58651 93712 42483 21699 46929 20371 51666 32293 56153 13279 82141 36099 96111 6082 19697 57421 54219 2857 71983 6172 14101 12605 83331 31035 51895 15121 10936 76401 93672 20969 42753 59609 54489 21157 54245 2881 29155 43028 5067 69793 21707 16417 86641 36797 18041 57613 17280 92330 98871 11485 72817 47500 49506 75123 67141 87906 2881 21613 53515 22330 6773 64474 98650 14092 21905 63601 16737 74609 18879 39191 11201 27877 33249 73016 1297 95773 66321 87617 53985 79180 65832 51376 53771 35107 71433 87629 40157 98110 26336 29718 17273 84125 67405 30653 12162 14121 10679 2426 55335 49649 79409 32801 60484 6044 75283 76511 96538 76455 94252 26923 69622 30300 62808 23145 57323 88563 23609 87105 8652 14202 66323 98908 99429 91209 84263 90613 39487 8117 37241 79921 44249 25869 27295 97253 46169 49987 577 29825 49182 17486 40001 64559 90425 65273 55889 76053 64393 39189 94457 29221 95729 94870 34307 25489 33053 27229 92153 42325 90705 84753 69229 50542 66380 32515 71101 76711 74734 82257 96443 65537 54008 53409 20083 60843 83797 47161 9719 25194 99691 71394 29865 92003 87111 42393 43697 65689 1035 33907 60088 85481 14439 63205 34873 18483 10496 38826 48849 37633 5061 21250 35009 62680 95845 85870 93263 44257 1571 39461 92057 33511 95344 19521 33799 52293 46177 20323 50761 74961 64755 79479 69437 96897 41097 48033 40785 81993 54556 16665 5310 81569 78789 21697 53473 67349 33789 1237 68129 20461 56045 3579 4769 6699 41513 72665 37481 65147 51319 97849 12218 27035 82577 32883 69941 33015 24715 86447 23978 6999 1275 64934 52302 87681 86553 4884 67661 43702 24627 45579 95479 92015 28454 43023 39587 39920 51959 64067 78977 33633 37689 40369 13841 25867 44192 63602 76595 38056 42714 7609 20097 94513 71664 23025 55217 44503 6365 43566 94401 55979 86945 72873 93387 29065 25297 43153 18823 1533 39349 78272 48233 39191 89943 68201 1697 71161 49617 87385 87998 29829 37185 25475 86475 42429 63742 69989 4805 25841 98209 52315 64716 31069 12961 169 58208 46079 2417 31001 13821 30841 67297 94290 51858 24159 42921 24071 36845 15511 27351 95553 51665 20744 75221 33825 99622 23704 36481 50967 28769 73321 51634 95225 60831 80809 19969 15610 55077 93287 27044 41425 93859 64452 6174 20895 3113 74137 91933 2579 66475 19017 50065 8065 95669 57847 74501 38204 95833 86778 5233 89743 6649 40895 31594 27921 72518 84093 98847 56747 38733 84940 48723 39624 16641 58593 99665 235 36061 13725 22345 99661 59425 32117 94533 17560 28649 43241 96001 39810 98291 93057 88733 52199 59177 4505 99705 57787 64989 95292 11098 1363 21409 4917 21795 85835 29365 80540 99321 99541 83879 89817 76213 45871 51623 53265 19751 85090 79795 35533 3861 90289 76309 97687 26943 19508 96739 37658 39944 15459 99041 64683 74681 44305 32104 36270 90978 54273 12383 55777 68861 97907 51787 48699 35901 12345 50879 64759 45371 81982 18886 97767 54436 35269 8461 45993 11233 74526 11402 89243 79498 46050 6959 85859 47577 1860 83189 79668 17057 28348 79773 88388 24817 98179 70189 20749 5205 39419 87615 94529 57076 78109 99650 90533 23229 75817 9984 36905 54956 76036 9937 34274 80125 11185 20945 41529 20492 24743 64037 82585 51511 97990 89939 336 37249 69409 69885 19031 37327 10537 71673 21138 86349 19438 79224 78649 97619 51379 92707 79025 15826 67826 71341 11557 96777 90679 85658 33520 88789 74553 17033 73045 81390 51521 64841 48963 11649 89564 32263 53025 56983 11617 5234 83441 2977 20833 51724 48852 12544 9056 54405 64633 41315 71897 3348 38975 13597 79861 34072 44237 13981 18689 94419 80321 34669 7575 98307 46376 81013 96121 1355 9209 83529 28577 15794 57648 42387 15340 14526 79869 84553 98317 28009 30941 40858 46915 11921 6363 89265 90187 25699 21633 5412 36517 60733 24499 82776 5281 83769 73441 22194 67267 27204 93109 57146 5836 13535 51409 20849 35071 34529 75633 88767 97086 77977 72611 68581 1540 19126 51238 20543 53073 94001 61345 16647 27067 25507 79705 7588 49163 15521 95726 55600 53689 76281 18527 969 84252 98148 63468 85329 13909 60761 34177 4251 65261 9399 23733 77155 7946 90562 40585 89680 70848 16603 61531 89601 3025 573 17269 77921 49225 65817 1060 78991 78517 99559 84333 97201 57104 53717 46691 59811 4361 8269 27104 26741 78361 26949 42761 85052 67161 90249 54724 24433 32385 11773 52340 31025 56809 4203 3135 64528 93009 72139 43059 64933 8446 45873 66479 61133 95077 18729 83738 11793 50827 56997 29985 77332 35577 43705 66821 69741 4115 98696 55637 29364 31470 69526 38584 6539 5447 88967 92973 61945 4377 14495 2885 70585 30508 10005 27196 10126 6267 38545 55593 58274 73253 43123 71723 11461 27329 91455 67013 55927 93907 62589 80776 63731 39521 81797 97185 951 5383 71399 89917 97245 54178 36595 51594 11835 21741 11756 7369 96511 46197 46533 35309 65177 75388 62393 14378 51201 90737 30923 49605 46817 27106 9995 57004 81401 81179 25245 94394 47998 78185 89759 34690 22561 45133 15729 2145 13136 82641 95393 33025 43853 29801 58202 54127 84103 29864 22667 19217 49119 9257 51365 77742 56641 96274 11596 33357 58442 59768 52579 88170 29151 20567 25465 84282 25143 41583 54153 87163 55381 78917 66808 84579 69949 43267 51759 87033 5331 17256 93345 38234 67017 85029 46575 56781 62625 97578 19417 72650 78833 10321 69055 25447 60174 98433 43587 30338 52499 51537 56449 34411 92115 62386 20413 757 28197 24536 28189 84271 28472 99921 77622 53525 3154 80641 22913 18248 82293 21162 2909 77167 61601 85321 68778 52453 68839 205 37313 55325 17704 45267 6607 13717 36657 78336 30494 63915 61968 96373 75747 63447 49963 24651 50797 75684 99376 62791 79441 95665 56153 76010 78224 30033 33277 63345 66881 8311 87653 29975 71773 72635 53736 19525 31851 34195 77954 21701 32125 34552 77303 12703 38850 80203 7656 85066 18113 87897 95421 59077 53489 71998 85788 61953 32627 46972 98150 19936 4201 32773 79323 57309 96265 6244 27569 13751 48319 82521 91229 99517 9105 85381 41553 99781 23796 19549 88727 22773 58433 77981 87632 5713 54516 10817 25246 21323 44625 20792 24717 22375 45869 50244 88564 31884 63947 93473 53655 38457 96009 21510 57367 68001 23679 777 80953 63161 42550 40281 95105 21116 16745 38222 12848 24236 44517 83947 52695 85769 21077 36453 68593 90241 10789 21274 82715 46969 32765 6764 11765 27445 42001 61255 78004 21925 13232 75363 87105 27388 95397 58556 21226 79681 26679 63112 57449 2309 74507 45376 33293 42021 71080 63151 79705 51977 3017 35497 57241 53129 83653 2001 10165 71831 55305 75856 44625 73805 69269 16825 12969 65555 73614 59863 59823 66803 1123 78569 87763 31073 71567 65513 18521 88851 93409 2965 17587 76327 54325 16267 38489 18090 87385 97376 40894 99585 48523 58449 80229 21509 29655 83748 79546 17081 48491 33070 49285 71545 53695 12437 79653 66037 4225 60083 17699 23227 85777 16241 59889 10159 60025 22115 9505 52247 79209 64521 28975 62627 12936 79814 44056 43969 10939 89429 12755 95409 69710 85571 11163 11391 6876 951 54617 32441 90357 53038 78034 25068 23727 16054 16984 91119 48843 82977 6483 90312 55799 77457 66337 6437 23733 6369 96461 2707 20345 81063 58079 43507 73601 7519 15255 1403 84747 8473 10213 44889 79398 38681 88999 78093 99869 95339 27575 72027 74199 4105 83637 34401 14125 25620 68513 91499 81457 84073 57697 94097 56150 67066 59266 4957 13249 72351 43115 54254 47279 57814 33783 72243 23409 40313 69676 96012 60883 91436 77853 90614 26069 82305 73147 33057 61035 52942 63004 40722 53887 71125 56761 74501 5265 2705 12041 34493 38529 31698 58797 2812 33211 44787 77511 1243 53315 35903 93843 79341 83409 58753 37379 71533 85149 65412 76239 73966 33020 68537 88557 2635 26507 17218 32600 78176 30630 50845 4281 13965 48381 54401 31385 15021 82002 25697 1444 41323 38357 83973 79747 8841 35853 89877 11341 43867 85249 80688 53105 90751 91728 72553 57457 36721 24361 30221 4797 63033 8029 98073 27365 63357 9714 47192 35550 33809 64809 99739 69059 58833 37253 35841 87647 48826 74361 20799 53061 84688 78881 66953 1477 69945 41656 88153 74900 28721 49130 11965 33121 86264 11477 54406 37637 37574 56817 83581 52065 84745 48489 52777 58666 73265 81449 42275 60777 37480 98913 77460 87473 79312 34043 6273 37649 15844 15699 76006 11622 41925 25459 36173 6115 14499 521 50553 68945 76817 81964 92610 94327 42393 20728 1901 16557 45929 23639 14265 64013 50329 64145 40573 21663 34767 40809 38353 7071 47585 50843 95419 6961 8433 76737 32700 68435 56629 32751 48099 36365 49757 32777 34842 96667 51779 74115 43535 66157 2692 51641 34817 63795 92237 92197 5967 79866 15721 42689 43295 65709 73089 84185 32907 98292 20370 34153 53745 76141 30269 65680 89565 55142 21313 26287 48639 40497 55553 8307 1169 79770 41729 66143 19797 48367 71939 84668 57158 35977 23721 10817 10941 46006 45456 69870 41761 37643 36977 68219 53176 37871 26723 80529 51761 29432 42245 87717 63318 52114 29841 38600 59201 1298 29017 34861 2353 84765 56258 57732 72464 2217 30193 94601 32460 3064 56845 3957 1389 12479 37011 66693 61954 73089 19217 25465 30415 33581 1943 66301 36477 60561 34299 63407 14277 41733 26305 96219 91495 54817 64228 43326 55929 66537 4739 92934 65995 88247 76375 83251 17881 71702 68785 61393 52221 21512 97201 98461 35905 15511 43769 93798 47632 73244 77155 50353 90467 99881 72745 85055 29999 18927 17009 74153 38624 33909 12131 39883 86401 55394 23782 89399 4305 7165 31048 41665 29221 40244 55121 80149 22271 79744 23657 19586 83468 86230 54293 31073 89633 85571 62972 48612 50723 14988 14146 42885 51925 32353 96034 27425 30574 96793 11243 865 57318 7137 86671 14199 27789 7901 14569 35585 81816 28023 9849 11881 20677 37793 33993 99627 51945 33353 19172 16970 90120 65357 15633 21603 19144 34921 11677 4224 16647 58501 5541 17335 56665 36372 77727 50969 42785 98879 49924 89381 35245 61113 8130 10445 81113 14927 23245 3486 79077 11121 74815 15104 27155 15713 40833 17562 94929 92271 30456 44307 99697 55268 23901 48670 39321 46877 61772 74470 85885 82889 39989 1113 44750 94905 38409 96963 33403 47422 55953 29985 91411 7243 14341 21125 98966 18807 48595 24405 82013 31389 63128 76181 58772 80703 83453 55780 36434 8893 27939 52573 75522 31161 80932 35401 31858 85761 49127 42646 41537 85686 56241 32018 40279 64197 1761 67393 90657 56489 98768 89277 5217 39401 94876 63173 54709 68623 51165 33688 16505 72829 77934 23356 65213 45292 25905 14394 18066 19353 86729 49465 40589 21033 22273 25380 21765 47601 9920 87073 77587 13839 89435 4316 91526 68042 80687 15395 84667 32597 88113 92721 18849 31571 41710 9669 39089 18489 7971 63687 83243 96181 39507 60293 39945 12953 68229 2321 74678 17045 9889 20569 40257 54028 88463 36053 37375 32967 52117 18273 90003 19257 15153 1032 36685 19473 67249 85659 24859 78581 18241 80065 9410 35203 62529 79046 1533 6447 69135 68017 20585 7929 8317 62749 95279 22966 27938 39873 59385 5921 90596 2681 53361 18829 51018 96815 93195 19700 16253 26475 21240 90312 87633 53505 19260 63225 1591 57409 31931 27843 7074 83756 31985 19601 33207 73125 3061 86046 33719 60785 67465 88139 77137 53791 93255 2081 31597 85905 34488 40557 5551 26804 34597 80837 76561 63197 68349 38957 55913 64666 79925 93337 91216 64665 54400 48600 90093 83201 80203 18885 69877 86371 20857 38755 86231 82881 48927 4552 44571 51976 20888 81353 70929 16805 98189 77533 75111 71057 96907 2094 24696 51233 31218 64484 6188 60899 14961 98725 85257 65523 87015 73171 38341 38613 82951 44865 32253 30163 86646 54237 28155 70265 32184 2833 74441 33210 1345 401 52906 24214 95209 39963 67301 82880 65889 59585 50626 48663 41103 25117 12753 12181 29661 44117 11452 72777 29959 21249 21537 66105 28097 54031 74452 94873 3041 7017 54737 1881 11293 72550 8503 26929 6261 79666 62837 22404 67001 87569 62729 59636 86618 49677 13212 77209 94185 81655 40349 75823 97753 433 28289 36353 80004 56692 89611 55559 76912 83585 85240 22051 8491 59320 57441 95474 45800 80951 81380 41313 10817 56626 81503 9837 16575 44656 57769 48737 80593 23783 68771 21531 77226 31131 72386 18389 98123 15137 3563 8061 17041 26320 62209 41817 58727 69133 4681 87173 48465 69131 75955 99151 30209 19059 13628 71011 61697 72058 42874 48925 60944 6974 76089 53249 58123 20129 24659 32829 73896 69673 51720 12782 98936 4979 55825 12689 71115 91840 49689 97409 77705 69748 70545 46685 24863 57932 41255 91301 79003 64237 14705 64129 48435 95265 78189 75845 79969 26383 94689 25426 35425 35652 31512 80559 51361 10661 36447 19447 85521 77249 55464 17899 42601 97453 54500 37441 74086 18081 45503 37162 8908 82929 88591 80979 88863 12153 41233 73625 63465 32407 26266 41645 24026 21695 4953 33787 95843 91746 35343 44133 58570 99417 16242 74797 95037 45618 35167 6129 93388 84735 68207 32039 86149 79256 47829 30271 16385 90407 5197 12593 51835 44993 84225 98889 24381 52494 16587 16964 31779 75766 97770 38009 89023 17343 60453 53181 94397 68537 22849 97747 66220 2393 38793 4449 98985 43037 30255 67057 48465 30403 51087 94537 96481 72692 5329 70859 66961 22177 32531 94853 64385 36816 10069 13306 52193 93943 48758 84871 26914 37425 96275 65453 59719 95079 46721 61449 98172 69201 28167 38999 36449 65558 49584 68605 2570 78402 15861 80063 22993 42359 57545 24061 64249 11034 50158 44729 36382 91992 48734 18195 48717 12350 46963 79669 83271 90175 86136 42433 42809 89545 97789 32354 24257 3537 47791 54671 38273 82825 97919 58753 29967 92057 16297 97633 24087 37449 66175 25419 98715 96957 25780 59391 11730 44577 19961 53551 98318 32750 75513 45209 63833 32949 26913 46787 69409 14593 68827 81869 70713 29656 984 25563 26497 22339 53345 16429 47368 50946 90909 73169 96060 83471 78765 73428 65612 55975 58452 32961 77494 41025 80155 23493 93398 68238 88447 1621 25269 63077 79619 34493 20508 31526 33886 44420 46491 61455 70787 11559 60201 50739 88793 85873 23829 42074 92616 15742 92109 98088 35587 95220 90276 27841 96960 16027 43397 90569 8325 2523 47969 81443 24225 41597 20361 44234 65687 49190 35783 59785 40577 53617 25859 9717 29600 29437 16430 11321 71192 17064 23880 53997 29601 26689 43303 27670 74745 49841 46775 9235 30035 64445 29309 27905 23333 95291 53825 9129 41820 31547 22633 11433 7865 99183 86751 67882 16793 30559 32747 73021 40327 55830 2597 90881 98525 7713 84777 75265 65169 54497 9165 13711 13055 9190 78081 98415 83993 59240 4273 85104 74958 80165 34401 11509 27405 23375 54522 1634 14993 75103 52885 57709 92467 149 47571 26297 35629 26320 45074 50395 92159 84518 21807 74525 37569 45787 4401 58843 59937 57321 72061 79149 64351 39233 68269 50027 36210 16320 40401 15618 53375 15517 68669 10939 54028 85777 12841 46729 56357 46273 29461 68873 25385 41552 87907 95300 73095 33061 49845 71065 87973 16099 22021 37745 98001 48905 29285 46511 78985 53026 91257 30453 72699 8061 13985 9355 52335 50795 65381 75993 38997 97681 14922 35651 37174 51073 86793 91150 98179 60181 42385 63333 68930 98866 5383 15553 15326 49339 55685 74649 36093 37667 44945 59433 14251 96337 23450 9400 74134 88710 38161 51981 53693 15795 64961 61837 46550 29211 6249 29764 74532 3037 14957 93806 8615 13283 65757 71623 92061 45679 5279 79379 13523 8511 21521 49407 42463 88437 31277 26546 63241 26563 73144 54509 98727 17510 98305 34746 34553 13341 16321 21760 99233 66469 97205 85167 73591 26526 37247 48295 24271 1683 53185 96149 26639 75424 21042 63491 80528 20962 62785 55247 93281 34145 35799 71992 13726 245 99143 51529 77289 93403 35099 3659 60897 37072 33585 93509 64956 47145 59753 48998 12613 71822 66391 88367 75089 89819 76825 66209 67021 47122 64329 68905 72137 29864 54977 91161 86660 62579 36913 40505 20580 70323 51131 61335 40737 20913 93096 14071 14973 63385 17941 73948 7249 30135 8976 1473 53202 29781 99015 77175 39041 94526 77225 14051 69586 84204 99841 90105 53153 48840 94184 28505 83862 34193 95856 32003 51793 20337 56001 96073 12283 57119 89847 52729 12163 29804 54221 52671 84301 41049 22641 96353 95425 93551 27489 20389 65293 94251 93187 50983 84736 54881 75564 19318 15101 98771 56233 94116 77353 94957 48545 95164 60369 28573 7553 80417 30936 37641 60120 40102 16577 44905 15713 23109 51549 13281 56645 62155 6385 60961 17869 21237 20689 57344 64415 13015 37639 2599 85972 90951 57119 68481 87549 27639 2119 71039 43152 26601 32019 89830 85729 68678 15814 84715 81247 67657 99442 13755 31671 11557 42585 26885 5636 79567 46030 6113 16555 54443 31389 36903 86679 74476 50426 64673 98185 9565 32973 11961 99628 6057 85851 66749 61093 78593 87617 45585 39713 18199 7301 66017 33946 33319 2229 94131 95094 4994 29133 65056 50320 28771 67889 72115 6305 78159 39705 93740 74873 43416 95371 85181 19852 37667 70930 70477 22808 58976 7495 69613 17665 71 80137 32823 23537 49249 35854 337 72897 55230 78458 41777 71727 16999 78617 61888 81333 94001 12494 96569 19587 29471 28499 71234 93313 78528 9745 76227 32673 51856 37275 89113 39441 809 47661 71178 44289 9761 22265 35791 44701 22647 18203 42393 51731 74503 38865 54571 33835 85057 96803 40215 26433 7989 91635 53841 46764 49443 73486 8261 68434 86299 93162 79328 82391 2657 5352 27772 71938 24265 2233 70769 72181 77339 5201 99183 12783 55447 79985 30957 98353 73165 94491 42993 60285 48030 41775 44821 2654 55345 71025 76637 58579 29389 70814 9983 69952 36085 60877 5306 78261 6137 71213 57200 91547 86529 62489 38634 50665 39620 47783 21224 97186 27418 49517 2142 58359 51359 55785 54691 77303 51065 58833 97987 52273 60101 1626 78697 99977 22245 74417 93851 21853 14177 23425 97714 21571 79053 31829 49013 27739 72447 29032 76881 70913 68435 31475 15623 83671 31787 22813 16601 68656 92210 20753 55949 35545 71087 5411 84549 25768 99341 41544 48469 50249 36196 86238 96859 29469 38761 33731 45924 42817 88663 89742 19701 6304 96514 59137 88653 4751 29071 77781 49191 82499 93897 36202 32226 34897 10182 59279 9667 14337 37621 30121 52895 83329 43923 72033 73270 97708 96502 17366 49929 56227 23880 82567 4857 83721 80605 98531 19602 27386 39261 10673 62001 2593 289 61893 52484 33905 51697 29517 31865 45738 26353 6958 23283 9305 85362 84509 30408 25147 39445 8506 38394 97899 22335 37716 25967 25025 25607 75048 14855 15745 77651 60125 9925 47769 82867 31823 86957 34543 50784 65264 88939 42093 51865 30411 30136 53927 80117 75167 24957 68566 80110 80295 40394 63635 18482 55056 25500 34014 86601 35947 48619 44471 9307 53245 56804 90387 44984 24095 95539 58964 26013 85253 18930 79037 94723 63016 55291 55622 17947 665 35089 18209 69595 29427 2625 11937 48723 91161 1141 97617 96953 11482 26298 35880 29902 55233 3776 81109 65395 40073 56637 4271 73 95045 54961 71935 43745 78713 31911 53655 82173 76537 35800 78273 83727 14315 49753 92407 36385 58051 38052 42901 30309 74557 56999 22665 6861 67367 53057 58990 58385 85397 48102 85653 31548 86529 89948 1488 87055 89921 60063 43734 9041 46248 89770 25149 56919 77841 30557 32400 49493 51187 25549 15463 97233 4552 71219 20696 37705 36253 65832 75487 94745 96481 13774 13686 11757 47682 23579 67877 88290 4005 98286 22861 24637 72573 79075 33473 72113 11513 89611 47101 90835 14944 84310 70787 16251 80669 77607 81753 10411 24113 79282 52129 91565 95204 79159 46869 43609 32459 33669 24464 78953 7379 15103 31268 72171 15149 79265 96099 27557 10225 23405 741 34645 4913 17734 90921 68353 97217 11308 10645 62415 63147 29490 34331 39634 51305 55217 97973 55419 46042 40153 61502 55233 2775 14357 77323 16560 96727 62917 25737 92453 20277 96921 16912 41637 14941 75237 51674 68633 37109 52915 91421 65913 44865 2273 73621 23199 4141 67688 84785 5703 45707 41745 79461 27119 67013 39521 94865 90677 57874 11783 48082 44481 95727 79745 51397 33798 14740 30178 33774 7510 1327 97873 86353 25081 70768 45037 86165 98129 89538 89993 98871 5616 15431 77711 82027 21465 66201 27280 23901 31175 21038 30129 33111 52681 22024 40495 20299 95497 52053 71424 86341 58013 34245 23763 22906 2056 57317 13404 13729 49545 80629 80929 21691 66953 80753 77185 59225 40039 12569 13985 42773 78692 18823 38343 34060 1905 55255 58615 92965 56075 21593 73819 67793 71355 53939 6353 40512 25486 98609 13331 46819 84493 62627 38899 4786 27029 68338 80305 68305 37800 88107 62753 1793 21369 62001 55371 78084 41731 94806 42648 98193 15983 68335 91669 57369 36529 64985 28471 86605 99497 65531 91145 70840 57089 75018 91959 37670 18253 15121 12945 55079 12501 36549 60464 88857 23768 85531 91750 56057 86981 66037 17653 47009 41937 54888 52781 90297 53409 61303 98913 89301 70081 53691 21307 11893 29847 760 83857 24041 14381 53229 55945 56737 79774 98784 77919 29034 42643 5201 98725 21825 5317 65505 2513 12913 35249 24897 58461 70531 59421 1576 63833 77608 6107 12124 75811 73038 53931 79969 22922 95713 36509 21266 46132 59971 1857 75041 50711 1905 13089 97385 77623 9530 373 4544 66389 87627 3575 96149 67617 48788 68032 44271 45723 17037 20513 44764 90390 96290 12365 17760 10989 22389 33077 92453 10513 46505 84218 29412 5396 62401 89357 27041 51347 20045 18334 69876 74399 72957 56708 9777 7650 90289 75485 47657 72743 84713 77625 52721 68083 21613 88029 36751 83753 18128 44097 91839 54234 32009 95443 43245 88041 8479 98277 48755 45140 91585 10904 34383 25773 26749 98845 85582 19199 2821 87530 64533 74797 52073 38968 7553 40945 81387 90175 27333 73253 60273 35834 17443 49821 4817 20865 5641 601 94056 78930 41497 46461 11175 40839 77033 60153 30347 15244 3962 23684 99569 7569 73081 32525 56533 44617 92613 13297 50509 68106 77973 94788 20349 9282 55841 16569 22018 99127 17338 26069 8233 21543 4521 90489 3337 89641 58373 88185 33980 71613 58283 39729 22588 57699 63201 61967 55135 20348 8961 26565 79458 49033 76465 44081 39725 50830 12609 9569 87875 46786 31265 851 1354 76861 57573 20405 9763 79555 63890 99972 25411 13451 33725 99275 63041 94393 68880 55457 10382 55577 93071 93985 15720 10923 91229 16697 75105 63692 32586 46052 70131 81765 54816 13981 46737 68153 73109 52108 11253 87492 81801 48339 17295 95725 46996 14386 3749 79917 63337 49351 65454 43251 57260 8401 61767 20767 60666 76569 8313 57897 94481 74063 7923 38782 62425 21944 60584 60458 96277 64762 30791 22421 45585 67577 37324 51047 35978 14299 7059 90513 3433 42000 68089 27033 29801 40483 92459 10481 46243 49945 27251 31877 30220 96809 6815 82484 95809 93039 16716 67917 76345 31725 5409 63015 70961 64857 86801 35009 12289 37860 84229 24298 90007 36611 15345 21026 29611 70964 83073 64337 80467 38336 70886 29354 87649 72118 77843 21382 20671 65384 5274 30071 67517 33039 2533 62057 23268 4336 44261 65756 95565 81907 15634 55847 64553 27386 99719 98637 72289 75414 98913 57185 26599 2390 32961 61500 29170 49777 94373 89864 44319 93341 48850 89252 14331 11865 69969 39253 95073 92261 31958 7019 91582 13208 41385 16663 45709 23853 39253 70667 71293 80785 96485 69386 43213 94639 11310 12180 70881 11844 73945 90722 18265 74673 20862 6384 68881 18964 5969 15541 70647 48431 84853 31100 92563 27891 95881 43081 47886 87006 3393 22019 30878 70005 14553 68847 57503 78755 13371 47152 86836 52393 30367 48813 13649 20347 2114 1076 30433 27662 59737 23165 65552 96628 59637 76630 55683 90565 62609 75315 7942 25185 35039 81693 85747 64591 90841 38425 92371 67953 99737 48486 45013 51503 23845 67393 79428 65875 16473 39902 74977 78387 61801 48348 13628 98222 88090 45241 16891 9613 91867 5717 70657 953 30353 54401 42629 82145 32365 96393 11131 26591 67077 76603 8685 52012 29990 85942 385 25723 80229 67369 58433 81254 14663 73249 48170 2684 34933 27765 26785 43423 57051 54822 36656 57420 29673 45446 96585 61309 66354 20039 31940 40094 43689 75705 33892 40862 29833 40164 25226 42290 49151 65945 96806 33025 83219 3441 23861 75038 55129 19969 97169 74635 24787 41979 33669 57216 8194 62557 60680 42652 79997 4369 97302 21225 18575 25619 31073 75883 76770 49742 18196 50479 50152 46857 39201 31097 71664 2924 49736 98352 59809 92353 38559 32227 49573 55127 71395 91610 39715 7277 49197 5194 45843 14165 33277 96662 59757 99177 7731 24161 93572 8247 54642 99563 63877 73088 2139 92115 40117 79473 53217 5165 42841 71926 61548 61169 65235 89402 27749 85109 55753 4197 85739 93915 53787 37423 64162 39923 60899 1195 16061 79094 27982 27135 41645 19249 69608 65866 70263 90337 50834 95439 27863 7215 63289 35152 13857 32779 65543 2371 60919 98066 21799 84259 5673 28205 32247 9083 46408 77574 87057 13041 33814 15143 67007 49961 88239 38973 10257 81763 15325 47401 89106 28727 9183 55583 51641 11009 19621 98381 35464 74625 22571 29933 26055 27587 42633 78017 44023 24432 66795 34504 45915 76127 91038 84001 4225 24909 57889 96375 68185 43150 90763 9218 12345 13541 55379 34180 28914 30777 99766 81025 98844 90653 71571 17975 18029 56201 87865 74889 35336 55370 70465 73305 48445 97646 63572 32919 83469 53807 28501 16 2171 65090 63019 32853 5169 27268 88906 57053 63182 77633 93137 79485 27905 20173 15262 35531 47489 4785 97142 74901 99335 97355 46399 68451 3523 34365 72825 85275 78383 45298 71597 
104
1 41344
2 9954 11542 86997 48529
1 58225
2 30537 37952 43686 93689
2 28573 35256 96933 46098
1 59633
1 31298
1 27640
1 14065
1 46862
1 5622
1 53282
2 52684 56154 60137 64848
1 5416
2 23686 45206 84097 55481
2 10201 46333 62900 15783
1 19427
1 33948
1 53379
1 61705
1 18890
1 4160
1 21911
2 61522 62674 99629 62707
2 58153 62267 62209 39251
1 15454
1 39028
1 8752
2 11778 34762 24771 32401
1 22222
2 23370 60926 20588 30067
1 30160
1 43368
1 59818
1 49861
1 61512
1 27252
2 36063 48951 56957 79779
1 55007
1 46247
1 16280
1 45512
1 12032
1 3194
1 57430
1 24860
1 35390
1 30214
1 3954
1 11325
1 36767
1 12100
1 27974
1 41025
1 995
1 32605
1 43535
1 40642
1 54443
2 4495 21116 47251 70557
2 48182 60758 22416 59457
2 33194 50222 54183 11865
1 57950
1 7451
1 56642
1 13392
1 17669
1 45478
1 44970
1 53989
2 11060 53382 47121 92001
1 15641
1 15438
2 5022 34492 88056 68589
1 39395
2 10328 23656 96281 42823
1 31947
1 26687
1 29750
2 60311 62477 56461 30148
1 28035
1 32124
1 61646
1 9772
1 53702
1 40088
1 22768
2 28978 61941 82871 68209
2 16674 17262 92147 29189
2 3249 58956 65793 82837
1 10479
1 20336
1 14938
2 13847 24913 20861 23190
1 51256
1 14592
1 38562
1 41364
1 52622
2 12649 37523 34353 36747
1 5057
1 59565
1 61545
1 48227
