979
343704577 37151873 172281515 244646521 590145281 92889093 617108964 827421125 29510513 679840313 361170013 396525407 742385494 937980789 28017323 109841321 341647315 43926095 510440881 960033677 595905385 506083129 778123792 179325041 379163096 372758893 325226745 806614505 830444023 998624051 369138791 238543339 736024903 567755571 878237211 832949869 912986777 680505717 519021975 187389197 830017833 316590243 800759945 431365823 989127619 993994627 699194421 657986209 896576868 742184797 356066338 298889883 932204279 448346616 181869953 573386969 751517851 42957849 472922153 755110788 744675640 943805763 720335621 236487450 21204450 441244744 534519373 754386829 410897738 698170433 85586033 868770824 740816652 868312769 176845725 369513972 108478745 873897217 109241861 468511160 346606213 593706995 257652757 836763654 938612643 402350604 794959121 78963797 214610277 787248291 454898297 197906548 763495124 374931484 218893779 530525637 341662497 686521043 531812089 705143669 734936557 601406487 425592195 720316665 267234877 948741312 807848445 252140345 896031297 696813049 56841110 840371789 386271688 765261049 108184609 351692111 865683041 686396017 386203030 826111017 150789233 339243217 504541755 872648749 709667833 354266662 149515287 738502753 65111010 293161993 10944469 786354256 994687181 834466811 840877093 22260983 189373118 584753679 159500845 38315347 307068471 75485153 401092230 302028005 852625360 348743826 505745571 605387189 562027352 38476512 622918769 772598121 369449943 303381113 113199105 882223933 825799829 706102273 850614801 552058029 893049227 853691333 438866739 257342500 843195422 532116523 922929782 645211436 778022175 990435425 964193041 600975649 853979312 641529165 109213149 825804896 687903461 310320949 176025401 841586151 773096012 393284265 622777697 16887433 109422047 558907813 124589971 500186012 537207212 106683435 801962937 725785946 777183414 146678643 381922849 303842055 67229739 720521638 773021356 549152327 859841513 398248689 456957373 850528267 108805300 893157345 610178014 977528292 725289709 78402541 506398559 393626369 97681489 192819082 656184881 259536579 312119 701992373 473039691 858325841 502316409 94935945 903464052 727468966 459906287 720538953 878006806 868522793 488391711 627877706 427341221 370845036 661402339 116748221 220028997 225558744 489326193 756669891 445605924 205858953 29669541 739826117 807562323 847742769 861291533 213444785 379748233 264150989 39988246 800416273 543659265 915656763 713267521 64319553 971938569 494061721 388629841 142705457 934493291 707674245 898199728 776127126 382200089 591079109 81992353 634687567 942411560 655806592 966273669 761016307 12479642 190465455 287867302 637099161 993523767 294951953 188195270 202078219 773145045 588845158 857514725 536644440 208281741 506704801 149785729 217464582 613057229 827203422 508331223 931515445 399822427 317964865 893124023 448775236 146167425 769147905 996927010 642004739 358382869 363417601 897024247 605661733 740808874 675050459 371230441 271585773 888325239 570705185 257225531 429238669 986441919 32541708 425229534 527368783 681539265 166792241 308302727 409492412 833598501 605642553 703009864 558465491 1096193 249242208 486104756 247807737 205545163 998806403 495706885 597963921 493624061 830796421 707020187 246209853 809535753 39024345 892322045 640923653 465177539 295108821 587891395 452505377 18992634 115342725 807029227 662623993 690062313 634072558 848813614 297908297 855768128 221460193 534619981 658584305 770502045 804273183 164450426 678174799 990423441 565051459 42648425 113127930 43223620 38686769 874313233 364072615 623382081 415887105 909302630 582337500 751386778 470355849 86975203 313188122 821867521 585748857 142165852 407622639 718169550 579085693 390256803 864302813 583910181 918952425 82412177 634181293 703710749 216627331 109626776 654426381 492702173 47568793 705045134 69718965 321693973 209295555 378472378 21250234 561720882 137128370 899522741 164118347 230016739 895859545 88824693 814583105 847271630 183263273 487244260 879862618 421336539 664230273 699959974 881506889 400329217 72990553 138235015 109166994 914823857 452261211 585513219 188146169 966587713 610201837 973208107 863762003 483390747 228431301 708410273 906940623 976423074 198092097 956794362 665214867 257450793 983489936 627685981 871631165 535537257 659339739 993133385 929958463 134611603 305158795 445009611 264273396 93697345 531489077 507838791 652447455 748374508 57557641 521823961 946842577 391121763 714752837 111631761 608346208 61626043 561019716 346415089 302956769 312479361 197639029 712471388 63945422 613239000 544367937 333218879 155128649 653493449 500662257 447395073 488242501 822586797 643996113 645061479 713830969 524843670 730962815 822857137 550322889 656526039 735178731 168012600 870861441 569185054 253539526 935726371 730813185 13978865 328545188 634606622 646075103 53445987 813302179 427009385 805486537 236639081 106044721 483394875 968581833 109942786 706275353 177573565 543933471 410354612 757871253 968477026 262635161 990956109 926134207 536038001 128399165 923481597 578967293 376577921 653773313 402842371 738533351 573647901 167590574 277653713 619917146 336028728 994846439 918938511 551809651 341555105 237099293 220638253 823346997 916234758 697522149 984767663 874805001 379059658 451103982 232416256 657327178 958248077 505082997 459197169 793221958 162221274 960133466 330800871 998216171 22839553 944055342 675900131 45226010 67331633 543898382 732887207 704443489 121787762 785459667 111003611 51354460 486438922 934305350 563853151 63771207 7919417 76469799 933653935 821369905 304896852 36914433 524046053 258084547 110684277 702048431 697804137 159693945 2731349 996422401 364860892 675864027 730094195 766341965 585521525 712274360 425842959 633874816 182768177 78353892 30053557 800960433 654313316 178570019 304009709 887260834 816891065 898733327 986336769 154106622 877935629 226139968 531296170 913446209 405330597 523328715 25521905 314524980 452147109 765887421 226793591 159896945 708272769 421229843 319838249 358958727 236150137 434060954 486777782 1738976 252080019 132416237 489418411 563632259 10677955 338571552 891164797 432319929 926498703 76271836 8925257 213683389 735346895 166667165 501659 976295585 944651708 669377865 808571626 88570106 459586781 627020881 581026641 109523708 582830377 946553484 617829706 849711233 484861972 730353243 414875145 651916030 12073513 427579557 994432313 851144801 389177659 309660973 190577175 89965592 242403753 310895124 219432458 45937695 944024713 44066569 889837139 287255449 511878545 196328449 13983449 261209961 529848668 478422739 735619425 569324157 432585217 833041193 290548389 568733681 676886129 868855357 591688793 82682935 494843233 472010289 900200152 159083424 453831775 63144129 408016427 896275417 554453754 825708595 736794742 396410449 963224465 713848487 296464003 812565673 808147181 410046801 183418695 766597249 169726968 549087818 533550061 754959093 724183056 221769585 540249 832595503 929910011 594386259 887612801 877111081 296766189 564998025 544656549 30283397 928907167 375810034 920520427 105294041 535073757 610119865 684339519 530776191 929014665 408023357 979438444 444700929 629317569 827912253 494818891 263377864 701276293 583810175 970310261 631538955 652865731 717168129 897959082 441321991 265725440 1235497 351718905 194012723 128926605 26065559 125683843 254126389 850820154 135537799 30184229 303162140 550878281 417893784 773240409 328018657 765874850 676802859 852973985 691399610 870091403 96311895 226835809 441018792 436404953 461692931 245370146 494890130 974574395 685577921 348575197 544423732 277815401 289829585 848625812 128476271 193626376 853884427 443011937 530085296 471628685 973772819 897446499 563197425 306733145 153272266 920132426 244753475 465571678 918622755 25862287 443633673 280183792 814636720 653662961 469283689 251869693 53513044 51064561 521562343 680612016 821841825 260426428 714898795 179044721 303558675 514809288 897276395 884901834 123325721 139894941 268247193 474413837 169041484 654526713 713362645 131104471 55749053 754750908 999126755 902339435 422243595 191088732 614047274 561069285 360851615 361857633 893368616 761431489 38077665 226862855 485245275 153964190 778378755 712791778 249266121 383360030 350438538 446039200 151844405 292273422 215354267 84477495 606722774 141072271 909879111 761399740 803463101 476666441 290968980 235836737 720645889 454609795 240677153 924877165 988301041 331602945 873561433 81588337 608311373 42563796 25905143 914118039 274973999 783577761 436214070 339611275 476588265 923351375 383649237 169623313 814363312 330993575 41217251 582189004 161183261 176701003 617798349 567299375 731337649 919615619 574417465 760291743 629167801 501102749 958231953 451126976 241140699 22550337 125139289 614333812 793475729 918633147 148053277 638545625 952859297 969601493 820239198 213515359 976231001 259384034 622009297 599999505 83375174 499234935 251835695 795656200 139456625 952596209 409386003 750887009 885461095 756951605 39399523 449861636 551584441 507881363 711332857 103892553 635755537 50104354 427004294 974269874 366158443 428707413 335062029 970418926 67041523 773635137 571938903 175657137 196532377 181232121 841697953 479669312 360049729 280491441 275769897 890823485 830878209 82481937 510245583 692662375 421217793 287600899 223776493 654696813 154612469 624983449 661960031 234127509 595285270 583477569 59652641 490998583 152596291 134949352 730892897 709313893 573564491 164169148 585965062 59264801 646383883 634734461 15821387 291969370 459606413 23334137 768352597 247342099 909869283 159222617 126057025 197083561 944781775 525862689 