4965
8017 8017 8017 8017 8017 8017 8017 8017 8017 8017 8017 8017 8017 8017 8017 8017 8017 8017 8017 8017 8017 8017 8017 8017 8017 8017 8017 8017 8017 8017 8017 8017 8017 8017 8017 8017 8017 8017 8017 8017 8017 8017 8017 8017 8017 8017 8017 8017 8017 8017 8017 8017 8017 8017 8017 8017 8017 8017 8017 8017 8017 8017 8017 8017 8017 8017 8017 8017 8017 8017 8017 8017 8017 8017 8017 8017 8017 8017 8017 8017 8017 8017 8017 8017 8017 8017 8017 8017 8017 8017 8017 8017 8017 8017 8017 8017 8017 8017 8017 8017 8017 8017 8017 8017 8017 8017 8017 8017 8017 8017 8017 8017 8017 8017 8017 8017 8017 8017 8017 8017 8017 8017 8017 8017 8017 8017 8017 8017 8017 8017 8017 8017 8017 8017 8017 8017 8017 8017 8017 8017 8017 8017 8017 8017 8017 8017 8017 8017 8017 8017 8017 8017 8017 8017 8017 8017 8017 8017 8017 8017 8017 8017 8017 8017 8017 8017 8017 8017 8017 8017 8017 8017 8017 8017 8017 8017 8017 8017 8017 8017 8017 8017 8017 8017 8017 8017 8017 8017 8017 8017 8017 8017 8017 8017 8017 8017 8017 8017 8017 8017 8017 8017 8017 8017 8017 8017 8017 8017 8017 8017 8017 8017 8017 8017 8017 8017 8017 8017 8017 8017 8017 8017 8017 8017 8017 8017 8017 8017 8017 8017 8017 8017 8017 8017 8017 8017 8017 8017 8017 8017 8017 8017 8017 8017 8017 8017 8017 8017 8017 8017 8017 8017 8017 8017 8017 8017 8017 8017 8017 8017 8017 8017 8017 8017 8017 8017 8017 8017 8017 8017 8017 8017 8017 8017 8017 8017 8017 8017 8017 8017 8017 8017 8017 8017 8017 8017 8017 8017 8017 8017 8017 8017 8017 8017 8017 8017 8017 8017 8017 8017 8017 8017 8017 8017 8017 8017 8017 8017 8017 8017 8017 8017 8017 8017 8017 8017 8017 8017 8017 8017 8017 8017 8017 8017 8017 8017 8017 8017 8017 8017 8017 8017 8017 8017 8017 8017 8017 8017 8017 8017 8017 8017 8017 8017 8017 8017 8017 8017 8017 8017 8017 8017 8017 8017 8017 8017 8017 8017 8017 8017 8017 8017 8017 8017 8017 8017 8017 8017 8017 8017 8017 8017 8017 8017 8017 8017 8017 8017 8017 8017 8017 8017 8017 8017 8017 8017 8017 8017 8017 8017 8017 8017 8017 8017 8017 8017 8017 8017 8017 8017 8017 8017 8017 8017 8017 8017 8017 8017 8017 8017 8017 8017 8017 8017 8017 8017 8017 8017 8017 8017 8017 8017 8017 8017 8017 8017 8017 8017 8017 8017 8017 8017 8017 8017 8017 8017 8017 8017 8017 8017 8017 8017 8017 8017 8017 8017 8017 8017 8017 8017 8017 8017 8017 8017 8017 8017 8017 8017 8017 8017 8017 8017 8017 8017 8017 8017 8017 8017 8017 8017 8017 8017 8017 8017 8017 8017 8017 8017 8017 8017 8017 8017 8017 8017 8017 8017 8017 8017 8017 8017 8017 8017 8017 8017 8017 8017 8017 8017 8017 8017 8017 8017 8017 8017 8017 8017 8017 8017 8017 8017 8017 8017 8017 8017 8017 8017 8017 8017 8017 8017 8017 8017 8017 8017 8017 8017 8017 8017 8017 8017 8017 8017 8017 8017 8017 8017 8017 8017 8017 8017 8017 8017 8017 8017 8017 8017 8017 8017 8017 8017 8017 8017 8017 8017 8017 8017 8017 8017 8017 8017 8017 8017 8017 8017 8017 8017 8017 8017 8017 8017 8017 8017 8017 8017 8017 8017 8017 8017 8017 8017 8017 8017 8017 8017 8017 8017 8017 8017 8017 8017 8017 8017 8017 8017 8017 8017 8017 8017 8017 8017 8017 8017 8017 8017 8017 8017 8017 8017 8017 8017 8017 8017 8017 8017 8017 8017 8017 8017 8017 8017 8017 8017 8017 8017 8017 8017 8017 8017 8017 8017 8017 8017 8017 8017 8017 8017 8017 8017 8017 8017 8017 8017 8017 8017 8017 8017 8017 8017 8017 8017 8017 8017 8017 8017 8017 8017 8017 8017 8017 8017 8017 8017 8017 8017 8017 8017 8017 8017 8017 8017 8017 8017 8017 8017 8017 8017 8017 8017 8017 8017 8017 8017 8017 8017 8017 8017 8017 8017 8017 8017 8017 8017 8017 8017 8017 8017 8017 8017 8017 8017 8017 8017 8017 8017 8017 8017 8017 8017 8017 8017 8017 8017 8017 8017 8017 8017 8017 8017 8017 8017 8017 8017 8017 8017 8017 8017 8017 8017 8017 8017 8017 8017 8017 8017 8017 8017 8017 8017 8017 8017 8017 8017 8017 8017 8017 8017 8017 8017 8017 8017 8017 8017 8017 8017 8017 8017 8017 8017 8017 8017 8017 8017 8017 8017 8017 8017 8017 8017 8017 8017 8017 8017 8017 8017 8017 8017 8017 8017 8017 8017 8017 8017 8017 8017 8017 8017 8017 8017 8017 8017 8017 8017 8017 8017 8017 8017 8017 8017 8017 8017 8017 8017 8017 8017 8017 8017 8017 8017 8017 8017 8017 8017 8017 8017 8017 8017 8017 8017 8017 8017 8017 8017 8017 8017 8017 8017 8017 8017 8017 8017 8017 8017 8017 8017 8017 8017 8017 8017 8017 8017 8017 8017 8017 8017 8017 8017 8017 8017 8017 8017 8017 8017 8017 8017 8017 8017 8017 8017 8017 8017 8017 8017 8017 8017 8017 8017 8017 8017 8017 8017 8017 8017 8017 8017 8017 8017 8017 8017 8017 8017 8017 8017 8017 8017 8017 8017 8017 8017 8017 8017 8017 8017 8017 8017 8017 8017 8017 8017 8017 8017 8017 8017 8017 8017 8017 8017 8017 8017 8017 8017 8017 8017 8017 8017 8017 8017 8017 8017 8017 8017 8017 8017 8017 8017 8017 8017 8017 8017 8017 8017 8017 8017 8017 8017 8017 8017 8017 8017 8017 8017 8017 8017 8017 8017 8017 8017 8017 8017 8017 8017 8017 8017 8017 8017 8017 8017 8017 8017 8017 8017 8017 8017 8017 8017 8017 8017 8017 8017 8017 8017 8017 8017 8017 8017 8017 8017 8017 8017 8017 8017 8017 8017 8017 8017 8017 8017 8017 8017 8017 8017 8017 8017 8017 8017 8017 8017 8017 8017 8017 8017 8017 8017 8017 8017 8017 8017 8017 8017 8017 8017 8017 8017 8017 8017 8017 8017 8017 8017 8017 8017 8017 8017 8017 8017 8017 8017 8017 8017 8017 8017 8017 8017 8017 8017 8017 8017 8017 8017 8017 8017 8017 8017 8017 8017 8017 8017 8017 8017 8017 8017 8017 8017 8017 8017 8017 8017 8017 8017 8017 8017 8017 8017 8017 8017 8017 8017 8017 8017 8017 8017 8017 8017 8017 8017 8017 8017 8017 8017 8017 8017 8017 8017 8017 8017 8017 8017 8017 8017 8017 8017 8017 8017 8017 8017 8017 8017 8017 8017 8017 8017 8017 8017 8017 8017 8017 8017 8017 8017 8017 8017 8017 8017 8017 8017 8017 8017 8017 8017 8017 8017 8017 8017 8017 8017 8017 8017 8017 8017 8017 8017 8017 8017 8017 8017 8017 8017 8017 8017 8017 8017 8017 8017 8017 8017 8017 8017 8017 8017 8017 8017 8017 8017 8017 8017 8017 8017 8017 8017 8017 8017 8017 8017 8017 8017 8017 8017 8017 8017 8017 8017 8017 8017 8017 8017 8017 8017 8017 8017 8017 8017 8017 8017 8017 8017 8017 8017 8017 8017 8017 8017 8017 8017 8017 8017 8017 8017 8017 8017 8017 8017 8017 8017 8017 8017 8017 8017 8017 8017 8017 8017 8017 8017 8017 8017 8017 8017 8017 8017 8017 8017 8017 8017 8017 8017 8017 8017 8017 8017 8017 8017 8017 8017 8017 8017 8017 8017 8017 8017 8017 8017 8017 8017 8017 8017 8017 8017 8017 8017 8017 8017 8017 8017 8017 8017 8017 8017 8017 8017 8017 8017 8017 8017 8017 8017 8017 8017 8017 8017 8017 8017 8017 8017 8017 8017 8017 8017 8017 8017 8017 8017 8017 8017 8017 8017 8017 8017 8017 8017 8017 8017 8017 8017 8017 8017 8017 8017 8017 8017 8017 8017 8017 8017 8017 8017 8017 8017 8017 8017 8017 8017 8017 8017 8017 8017 8017 8017 8017 8017 8017 8017 8017 8017 8017 8017 8017 8017 8017 8017 8017 8017 8017 8017 8017 8017 8017 8017 8017 8017 8017 8017 8017 8017 8017 8017 8017 8017 8017 8017 8017 8017 8017 8017 8017 8017 8017 8017 8017 8017 8017 8017 8017 8017 8017 8017 8017 8017 8017 8017 8017 8017 8017 8017 8017 8017 8017 8017 8017 8017 8017 8017 8017 8017 8017 8017 8017 8017 8017 8017 8017 8017 8017 8017 8017 8017 8017 8017 8017 8017 8017 8017 8017 8017 8017 8017 8017 8017 8017 8017 8017 8017 8017 8017 8017 8017 8017 8017 8017 8017 8017 8017 8017 8017 8017 8017 8017 8017 8017 8017 8017 8017 8017 8017 8017 8017 8017 8017 8017 8017 8017 8017 8017 8017 8017 8017 8017 8017 8017 8017 8017 8017 8017 8017 8017 8017 8017 8017 8017 8017 8017 8017 8017 8017 8017 8017 8017 8017 8017 8017 8017 8017 8017 8017 8017 8017 8017 8017 8017 8017 8017 8017 8017 8017 8017 8017 8017 8017 8017 8017 8017 8017 8017 8017 8017 8017 8017 8017 8017 8017 8017 8017 8017 8017 8017 8017 8017 8017 8017 8017 8017 8017 8017 8017 8017 8017 8017 8017 8017 8017 8017 8017 8017 8017 8017 8017 8017 8017 8017 8017 8017 8017 8017 8017 8017 8017 8017 8017 8017 8017 8017 8017 8017 8017 8017 8017 8017 8017 8017 8017 8017 8017 8017 8017 8017 8017 8017 8017 8017 8017 8017 8017 8017 8017 8017 8017 8017 8017 8017 8017 8017 8017 8017 8017 8017 8017 8017 8017 8017 8017 8017 8017 8017 8017 8017 8017 8017 8017 8017 8017 8017 8017 8017 8017 8017 8017 8017 8017 8017 8017 8017 8017 8017 8017 8017 8017 8017 8017 8017 8017 8017 8017 8017 8017 8017 8017 8017 8017 8017 8017 8017 8017 8017 8017 8017 8017 8017 8017 8017 8017 8017 8017 8017 8017 8017 8017 8017 8017 8017 8017 8017 8017 8017 8017 8017 8017 8017 8017 8017 8017 8017 8017 8017 8017 8017 8017 8017 8017 8017 8017 8017 8017 8017 8017 8017 8017 8017 8017 8017 8017 8017 8017 8017 8017 8017 8017 8017 8017 8017 8017 8017 8017 8017 8017 8017 8017 8017 8017 8017 8017 8017 8017 8017 8017 8017 8017 8017 8017 8017 8017 8017 8017 8017 8017 8017 8017 8017 8017 8017 8017 8017 8017 8017 8017 8017 8017 8017 8017 8017 8017 8017 8017 8017 8017 8017 8017 8017 8017 8017 8017 8017 8017 8017 8017 8017 8017 8017 8017 8017 8017 8017 8017 8017 8017 8017 8017 8017 8017 8017 8017 8017 8017 8017 8017 8017 8017 8017 8017 8017 8017 8017 8017 8017 8017 8017 8017 8017 8017 8017 8017 8017 8017 8017 8017 8017 8017 8017 8017 8017 8017 8017 8017 8017 8017 8017 8017 8017 8017 8017 8017 8017 8017 8017 8017 8017 8017 8017 8017 8017 8017 8017 8017 8017 8017 8017 8017 8017 8017 8017 8017 8017 8017 8017 8017 8017 8017 8017 8017 8017 8017 8017 8017 8017 8017 8017 8017 8017 8017 8017 8017 8017 8017 8017 8017 8017 8017 8017 8017 8017 8017 8017 8017 8017 8017 8017 8017 8017 8017 8017 8017 8017 8017 8017 8017 8017 8017 8017 8017 8017 8017 8017 8017 8017 8017 8017 8017 8017 8017 8017 8017 8017 8017 8017 8017 8017 8017 8017 8017 8017 8017 8017 8017 8017 8017 8017 8017 8017 8017 8017 8017 8017 8017 8017 8017 8017 8017 8017 8017 8017 8017 8017 8017 8017 8017 8017 8017 8017 8017 8017 8017 8017 8017 8017 8017 8017 8017 8017 8017 8017 8017 8017 8017 8017 8017 8017 8017 8017 8017 8017 8017 8017 8017 8017 8017 8017 8017 8017 8017 8017 8017 8017 8017 8017 8017 8017 8017 8017 8017 8017 8017 8017 8017 8017 8017 8017 8017 8017 8017 8017 8017 8017 8017 8017 8017 8017 8017 8017 8017 8017 8017 8017 8017 8017 8017 8017 8017 8017 8017 8017 8017 8017 8017 8017 8017 8017 8017 8017 8017 8017 8017 8017 8017 8017 8017 8017 8017 8017 8017 8017 8017 8017 8017 8017 8017 8017 8017 8017 8017 8017 8017 8017 8017 8017 8017 8017 8017 8017 8017 8017 8017 8017 8017 8017 8017 8017 8017 8017 8017 8017 8017 8017 8017 8017 8017 8017 8017 8017 8017 8017 8017 8017 8017 8017 8017 8017 8017 8017 8017 8017 8017 8017 8017 8017 8017 8017 8017 8017 8017 8017 8017 8017 8017 8017 8017 8017 8017 8017 8017 8017 8017 8017 8017 8017 8017 8017 8017 8017 8017 8017 8017 8017 8017 8017 8017 8017 8017 8017 8017 8017 8017 8017 8017 8017 8017 8017 8017 8017 8017 8017 8017 8017 8017 8017 8017 8017 8017 8017 8017 8017 8017 8017 8017 8017 8017 8017 8017 8017 8017 8017 8017 8017 8017 8017 8017 8017 8017 8017 8017 8017 8017 8017 8017 8017 8017 8017 8017 8017 8017 8017 8017 8017 8017 8017 8017 8017 8017 8017 8017 8017 8017 8017 8017 8017 8017 8017 8017 8017 8017 8017 8017 8017 8017 8017 8017 8017 8017 8017 8017 8017 8017 8017 8017 8017 8017 8017 8017 8017 8017 8017 8017 8017 8017 8017 8017 8017 8017 8017 8017 8017 8017 8017 8017 8017 8017 8017 8017 8017 8017 8017 8017 8017 8017 8017 8017 8017 8017 8017 8017 8017 8017 8017 8017 8017 8017 8017 8017 8017 8017 8017 8017 8017 8017 8017 8017 8017 8017 8017 8017 8017 8017 8017 8017 8017 8017 8017 8017 8017 8017 8017 8017 8017 8017 8017 8017 8017 8017 8017 8017 8017 8017 8017 8017 8017 8017 8017 8017 8017 8017 8017 8017 8017 8017 8017 8017 8017 8017 8017 8017 8017 8017 8017 8017 8017 8017 8017 8017 8017 8017 8017 8017 8017 8017 8017 8017 8017 8017 8017 8017 8017 8017 8017 8017 8017 8017 8017 8017 8017 8017 8017 8017 8017 8017 8017 8017 8017 8017 8017 8017 8017 8017 8017 8017 8017 8017 8017 8017 8017 8017 8017 8017 8017 8017 8017 8017 8017 8017 8017 8017 8017 8017 8017 8017 8017 8017 8017 8017 8017 8017 8017 8017 8017 8017 8017 8017 8017 8017 8017 8017 8017 8017 8017 8017 8017 8017 8017 8017 8017 8017 8017 8017 8017 8017 8017 8017 8017 8017 8017 8017 8017 8017 8017 8017 8017 8017 8017 8017 8017 8017 8017 8017 8017 8017 8017 8017 8017 8017 8017 8017 8017 8017 8017 8017 8017 8017 8017 8017 8017 8017 8017 8017 8017 8017 8017 8017 8017 8017 8017 8017 8017 8017 8017 8017 8017 8017 8017 8017 8017 8017 8017 8017 8017 8017 8017 8017 8017 8017 8017 8017 8017 8017 8017 8017 8017 8017 8017 8017 8017 8017 8017 8017 8017 8017 8017 8017 8017 8017 8017 8017 8017 8017 8017 8017 8017 8017 8017 8017 8017 8017 8017 8017 8017 8017 8017 8017 8017 8017 8017 8017 8017 8017 8017 8017 8017 8017 8017 8017 8017 8017 8017 8017 8017 8017 8017 8017 8017 8017 8017 8017 8017 8017 8017 8017 8017 8017 8017 8017 8017 8017 8017 8017 8017 8017 8017 8017 8017 8017 8017 8017 8017 8017 8017 8017 8017 8017 8017 8017 8017 8017 8017 8017 8017 8017 8017 8017 8017 8017 8017 8017 8017 8017 8017 8017 8017 8017 8017 8017 8017 8017 8017 8017 8017 8017 8017 8017 8017 8017 8017 8017 8017 8017 8017 8017 8017 8017 8017 8017 8017 8017 8017 8017 8017 8017 8017 8017 8017 8017 8017 8017 8017 8017 8017 8017 8017 8017 8017 8017 8017 8017 8017 8017 8017 8017 8017 8017 8017 8017 8017 8017 8017 8017 8017 8017 8017 8017 8017 8017 8017 8017 8017 8017 8017 8017 8017 8017 8017 8017 8017 8017 8017 8017 8017 8017 8017 8017 8017 8017 8017 8017 8017 8017 8017 8017 8017 8017 8017 8017 8017 8017 8017 8017 8017 8017 8017 8017 8017 8017 8017 8017 8017 8017 8017 8017 8017 8017 8017 8017 8017 8017 8017 8017 8017 8017 8017 8017 8017 8017 8017 8017 8017 8017 8017 8017 8017 8017 8017 8017 8017 8017 8017 8017 8017 8017 8017 8017 8017 8017 8017 8017 8017 8017 8017 8017 8017 8017 8017 8017 8017 8017 8017 8017 8017 8017 8017 8017 8017 8017 8017 8017 8017 8017 8017 8017 8017 8017 8017 8017 8017 8017 8017 8017 8017 8017 8017 8017 8017 8017 8017 8017 8017 8017 8017 8017 8017 8017 8017 8017 8017 8017 8017 8017 8017 8017 8017 8017 8017 8017 8017 8017 8017 8017 8017 8017 8017 8017 8017 8017 8017 8017 8017 8017 8017 8017 8017 8017 8017 8017 8017 8017 8017 8017 8017 8017 8017 8017 8017 8017 8017 8017 8017 8017 8017 8017 8017 8017 8017 8017 8017 8017 8017 8017 8017 8017 8017 8017 8017 8017 8017 8017 8017 8017 8017 8017 8017 8017 8017 8017 8017 8017 8017 8017 8017 8017 8017 8017 8017 8017 8017 8017 8017 8017 8017 8017 8017 8017 8017 8017 8017 8017 8017 8017 8017 8017 8017 8017 8017 8017 8017 8017 8017 8017 8017 8017 8017 8017 8017 8017 8017 8017 8017 8017 8017 8017 8017 8017 8017 8017 8017 8017 8017 8017 8017 8017 8017 8017 8017 8017 8017 8017 8017 8017 8017 8017 8017 8017 8017 8017 8017 8017 8017 8017 8017 8017 8017 8017 8017 8017 8017 8017 8017 8017 8017 8017 8017 8017 8017 8017 8017 8017 8017 8017 8017 8017 8017 8017 8017 8017 8017 8017 8017 8017 8017 8017 8017 8017 8017 8017 8017 8017 8017 8017 8017 8017 8017 8017 8017 8017 8017 8017 8017 8017 8017 8017 8017 8017 8017 8017 8017 8017 8017 8017 8017 8017 8017 8017 8017 8017 8017 8017 8017 8017 8017 8017 8017 8017 8017 8017 8017 8017 8017 8017 8017 8017 8017 8017 8017 8017 8017 8017 8017 8017 8017 8017 8017 8017 8017 8017 8017 8017 8017 8017 8017 8017 8017 8017 8017 8017 8017 8017 8017 8017 8017 8017 8017 8017 8017 8017 8017 8017 8017 8017 8017 8017 8017 8017 8017 8017 8017 8017 8017 8017 8017 8017 8017 8017 8017 8017 8017 8017 8017 8017 8017 8017 8017 8017 8017 8017 8017 8017 8017 8017 8017 8017 8017 8017 8017 8017 8017 8017 8017 8017 8017 8017 8017 8017 8017 8017 8017 8017 8017 8017 8017 8017 8017 8017 8017 8017 8017 8017 8017 8017 8017 8017 8017 8017 8017 8017 8017 8017 8017 8017 8017 8017 8017 8017 8017 8017 8017 8017 8017 8017 8017 8017 8017 8017 8017 8017 8017 8017 8017 8017 8017 8017 8017 8017 8017 8017 8017 8017 8017 8017 8017 8017 8017 8017 8017 8017 8017 8017 8017 8017 8017 8017 8017 8017 8017 8017 8017 8017 8017 8017 8017 8017 8017 8017 8017 8017 8017 8017 8017 8017 8017 8017 8017 8017 8017 8017 8017 8017 8017 8017 8017 8017 8017 8017 8017 8017 8017 8017 8017 8017 8017 8017 8017 8017 8017 8017 8017 8017 8017 8017 8017 8017 8017 8017 8017 8017 8017 8017 8017 8017 8017 8017 8017 8017 8017 8017 8017 8017 8017 8017 8017 8017 8017 8017 8017 8017 8017 8017 8017 8017 8017 8017 8017 8017 8017 8017 8017 8017 8017 8017 8017 8017 8017 8017 8017 8017 8017 8017 8017 8017 8017 8017 8017 8017 8017 8017 8017 8017 8017 8017 8017 8017 8017 8017 8017 8017 8017 8017 8017 8017 8017 8017 8017 8017 8017 8017 8017 8017 8017 8017 8017 8017 8017 8017 8017 8017 8017 8017 8017 8017 8017 8017 8017 8017 8017 8017 8017 8017 8017 8017 8017 8017 8017 8017 8017 8017 8017 8017 8017 8017 8017 8017 8017 8017 8017 8017 8017 8017 8017 8017 8017 8017 8017 8017 8017 8017 8017 8017 8017 8017 8017 8017 8017 8017 8017 8017 8017 8017 8017 8017 8017 8017 8017 8017 8017 8017 8017 8017 8017 8017 8017 8017 8017 8017 8017 8017 8017 8017 8017 8017 8017 8017 8017 8017 8017 8017 8017 8017 8017 8017 8017 8017 8017 8017 8017 8017 8017 8017 8017 8017 8017 8017 8017 8017 8017 8017 8017 8017 8017 8017 8017 8017 8017 8017 8017 8017 8017 8017 8017 8017 8017 8017 8017 8017 8017 8017 8017 8017 8017 8017 8017 8017 8017 8017 8017 8017 8017 8017 8017 8017 8017 8017 8017 8017 8017 8017 8017 8017 8017 8017 8017 8017 8017 8017 8017 8017 8017 8017 8017 8017 8017 8017 8017 8017 8017 8017 8017 8017 8017 8017 8017 8017 8017 8017 8017 8017 8017 8017 8017 8017 8017 8017 8017 8017 8017 8017 8017 8017 8017 8017 8017 8017 8017 8017 8017 8017 8017 8017 8017 8017 8017 8017 8017 8017 8017 8017 8017 8017 8017 8017 8017 8017 8017 8017 8017 8017 8017 8017 8017 8017 8017 8017 8017 8017 8017 8017 8017 8017 8017 8017 8017 8017 8017 8017 8017 8017 8017 8017 8017 8017 8017 8017 8017 8017 8017 8017 8017 8017 8017 8017 8017 8017 8017 8017 8017 8017 8017 8017 8017 8017 8017 8017 8017 8017 8017 8017 8017 8017 8017 8017 8017 8017 8017 8017 8017 8017 8017 8017 8017 8017 8017 8017 8017 8017 8017 8017 8017 8017 8017 8017 8017 8017 8017 8017 8017 8017 8017 8017 8017 8017 8017 8017 8017 8017 8017 8017 8017 8017 8017 8017 8017 8017 8017 8017 8017 8017 8017 8017 8017 8017 8017 8017 8017 8017 8017 8017 8017 8017 8017 8017 8017 8017 8017 8017 8017 8017 8017 8017 8017 8017 8017 8017 8017 8017 8017 8017 8017 8017 8017 8017 8017 8017 8017 8017 8017 8017 8017 8017 8017 8017 8017 8017 8017 8017 8017 8017 8017 8017 8017 8017 8017 8017 8017 8017 8017 8017 8017 8017 8017 8017 8017 8017 8017 8017 8017 8017 8017 8017 8017 8017 8017 8017 8017 8017 8017 8017 8017 8017 8017 8017 8017 8017 8017 8017 8017 8017 8017 8017 8017 8017 8017 8017 8017 8017 8017 8017 8017 8017 8017 8017 8017 8017 8017 8017 8017 8017 8017 8017 8017 8017 8017 8017 8017 8017 8017 8017 8017 8017 8017 8017 8017 8017 8017 8017 8017 8017 8017 8017 8017 8017 8017 8017 8017 8017 8017 8017 8017 8017 8017 8017 8017 8017 8017 8017 8017 8017 8017 8017 8017 8017 8017 8017 8017 8017 8017 8017 8017 8017 8017 8017 8017 8017 8017 8017 8017 8017 8017 8017 8017 8017 8017 8017 8017 8017 8017 8017 8017 8017 8017 8017 8017 8017 8017 8017 8017 8017 8017 8017 8017 8017 8017 8017 8017 8017 8017 8017 8017 8017 8017 8017 8017 8017 8017 8017 8017 8017 8017 8017 8017 8017 8017 8017 8017 8017 8017 8017 8017 8017 8017 8017 8017 8017 8017 8017 8017 8017 8017 8017 8017 8017 8017 8017 8017 8017 8017 8017 8017 8017 8017 8017 8017 8017 8017 8017 8017 8017 8017 8017 8017 8017 8017 8017 8017 8017 8017 8017 8017 8017 8017 8017 8017 8017 8017 8017 8017 8017 8017 8017 8017 8017 8017 8017 8017 8017 8017 8017 8017 8017 8017 8017 8017 8017 8017 8017 8017 8017 8017 8017 8017 8017 8017 8017 8017 8017 8017 8017 8017 8017 8017 8017 8017 8017 8017 8017 8017 8017 8017 8017 8017 8017 8017 8017 8017 8017 8017 8017 8017 8017 8017 8017 8017 8017 8017 8017 8017 8017 8017 8017 8017 8017 8017 8017 8017 8017 8017 8017 8017 8017 8017 8017 8017 8017 8017 8017 8017 8017 8017 8017 8017 8017 8017 8017 8017 8017 8017 8017 8017 8017 8017 8017 8017 8017 8017 8017 8017 8017 8017 8017 8017 8017 8017 8017 8017 8017 8017 8017 8017 8017 8017 8017 8017 8017 8017 8017 8017 8017 8017 8017 8017 8017 8017 8017 8017 8017 8017 8017 8017 8017 8017 8017 8017 8017 8017 8017 8017 8017 8017 8017 8017 8017 8017 8017 8017 8017 8017 8017 8017 8017 8017 8017 8017 8017 8017 8017 8017 8017 8017 8017 8017 8017 8017 8017 8017 8017 8017 8017 8017 8017 8017 8017 8017 8017 8017 8017 8017 8017 8017 8017 8017 8017 8017 8017 8017 8017 8017 8017 8017 8017 8017 8017 8017 8017 8017 8017 8017 8017 8017 8017 8017 8017 8017 8017 8017 8017 8017 8017 8017 8017 8017 8017 8017 8017 8017 8017 8017 8017 8017 8017 8017 8017 8017 8017 8017 8017 8017 8017 8017 8017 8017 8017 8017 8017 8017 8017 8017 8017 8017 8017 8017 8017 8017 8017 8017 8017 8017 8017 8017 8017 8017 8017 8017 8017 8017 8017 8017 8017 8017 8017 8017 8017 8017 8017 8017 8017 8017 8017 8017 8017 8017 8017 8017 8017 8017 8017 8017 8017 8017 8017 8017 8017 8017 8017 8017 8017 8017 8017 8017 8017 8017 8017 8017 8017 8017 8017 8017 8017 8017 8017 8017 8017 8017 8017 8017 8017 8017 8017 8017 8017 8017 8017 8017 8017 8017 8017 8017 8017 8017 8017 8017 8017 8017 8017 8017 8017 8017 8017 8017 8017 8017 8017 8017 8017 8017 8017 8017 8017 8017 8017 8017 8017 8017 8017 8017 8017 8017 8017 8017 8017 8017 8017 8017 8017 8017 8017 8017 8017 8017 8017 8017 8017 8017 8017 8017 8017 8017 8017 8017 8017 8017 8017 8017 8017 8017 8017 8017 8017 8017 8017 8017 8017 8017 8017 8017 8017 8017 8017 8017 8017 8017 8017 8017 8017 8017 8017 8017 8017 8017 8017 8017 8017 8017 8017 8017 8017 8017 8017 8017 8017 8017 8017 8017 8017 8017 8017 8017 8017 8017 8017 8017 8017 8017 8017 8017 8017 8017 8017 8017 8017 8017 8017 8017 8017 8017 8017 8017 8017 8017 8017 8017 8017 8017 8017 8017 8017 8017 8017 8017 8017 8017 8017 8017 8017 8017 8017 8017 8017 8017 8017 8017 8017 8017 8017 8017 8017 8017 8017 8017 8017 8017 8017 8017 8017 8017 8017 8017 8017 8017 8017 8017 8017 8017 8017 8017 8017 8017 8017 8017 8017 8017 8017 8017 8017 8017 8017 8017 8017 8017 8017 8017 8017 8017 8017 8017 8017 8017 8017 8017 8017 8017 8017 8017 8017 8017 8017 8017 8017 8017 8017 8017 8017 8017 8017 8017 8017 8017 8017 8017 8017 8017 8017 8017 8017 8017 8017 8017 8017 8017 8017 8017 8017 8017 8017 8017 8017 8017 8017 8017 8017 8017 8017 8017 8017 8017 8017 8017 8017 8017 8017 8017 8017 8017 8017 8017 8017 8017 8017 8017 8017 8017 8017 8017 8017 8017 8017 8017 8017 8017 8017 8017 8017 8017 8017 8017 8017 8017 8017 8017 8017 8017 8017 8017 8017 8017 8017 8017 8017 8017 8017 8017 8017 8017 8017 8017 8017 8017 8017 8017 8017 8017 8017 8017 8017 8017 8017 8017 8017 8017 8017 8017 8017 8017 8017 8017 8017 8017 8017 8017 8017 8017 8017 8017 8017 8017 8017 8017 8017 8017 8017 8017 8017 8017 8017 8017 8017 8017 8017 8017 8017 8017 8017 8017 8017 8017 8017 8017 8017 8017 8017 8017 8017 8017 8017 8017 8017 8017 8017 8017 8017 8017 8017 8017 8017 8017 8017 8017 8017 8017 8017 8017 8017 8017 8017 8017 8017 8017 8017 8017 8017 8017 8017 8017 8017 8017 8017 8017 8017 8017 8017 8017 8017 8017 8017 8017 8017 8017 8017 8017 8017 8017 8017 8017 8017 8017 8017 8017 8017 8017 8017 8017 8017 8017 8017 8017 8017 8017 8017 8017 8017 8017 8017 8017 8017 8017 8017 8017 8017 8017 8017 8017 8017 8017 8017 8017 8017 8017 8017 8017 8017 8017 8017 8017 8017 8017 8017 8017 8017 8017 8017 8017 8017 8017 8017 8017 8017 8017 8017 8017 8017 8017 8017 8017 8017 8017 8017 8017 8017 8017 8017 8017 8017 8017 8017 8017 8017 8017 8017 8017 8017 8017 8017 8017 8017 8017 8017 8017 8017 8017 8017 8017 8017 8017 8017 8017 8017 8017 8017 8017 8017 8017 8017 8017 8017 8017 8017 8017 8017 8017 8017 8017 8017 8017 8017 8017 8017 8017 8017 8017 8017 8017 8017 8017 8017 8017 8017 8017 8017 8017 8017 8017 8017 8017 8017 8017 8017 8017 8017 8017 8017 8017 8017 8017 8017 8017 8017 8017 8017 8017 8017 8017 8017 8017 8017 8017 8017 8017 8017 8017 8017 8017 8017 8017 8017 8017 8017 8017 8017 8017 8017 8017 8017 8017 8017 8017 8017 8017 8017 8017 8017 8017 8017 8017 8017 8017 8017 8017 8017 8017 8017 8017 8017 8017 8017 8017 8017 8017 8017 8017 8017 8017 8017 8017 8017 8017 8017 8017 8017 8017 8017 8017 8017 8017 8017 8017 8017 8017 8017 8017 8017 8017 8017 8017 8017 8017 8017 8017 8017 8017 8017 8017 8017 8017 8017 8017 8017 8017 8017 8017 8017 8017 8017 8017 8017 8017 8017 8017 8017 8017 8017 8017 8017 8017 8017 8017 8017 8017 8017 8017 8017 8017 8017 8017 8017 8017 8017 8017 8017 8017 8017 8017 8017 8017 8017 8017 8017 8017 8017 8017 8017 8017 8017 8017 8017 8017 8017 8017 8017 8017 8017 8017 8017 8017 8017 8017 8017 8017 8017 8017 8017 8017 8017 8017 8017 8017 8017 8017 8017 8017 8017 8017 8017 8017 8017 8017 8017 8017 8017 8017 8017 8017 8017 8017 8017 8017 8017 8017 8017 8017 8017 8017 8017 8017 8017 8017 8017 8017 8017 8017 8017 8017 8017 8017 8017 8017 8017 8017 8017 8017 8017 8017 8017 8017 8017 8017 8017 8017 8017 8017 8017 8017 8017 8017 8017 8017 8017 8017 8017 8017 8017 8017 8017 8017 8017 8017 8017 8017 8017 8017 8017 8017 8017 8017 8017 8017 8017 8017 8017 8017 8017 8017 8017 8017 8017 8017 8017 8017 8017 8017 8017 8017 8017 8017 8017 8017 8017 8017 8017 8017 8017 8017 8017 8017 8017 8017 8017 8017 8017 8017 8017 8017 8017 8017 8017 8017 8017 8017 8017 8017 8017 8017 8017 8017 8017 8017 8017 8017 8017 8017 
1 2
1 3
1 4
1 5
3 6
5 7
1 8
6 9
5 10
8 11
3 12
9 13
4 14
7 15
10 16
10 17
5 18
17 19
1 20
20 21
2 22
20 23
10 24
16 25
8 26
26 27
16 28
3 29
26 30
1 31
31 32
13 33
26 34
33 35
2 36
12 37
36 38
17 39
4 40
21 41
2 42
37 43
29 44
33 45
34 46
27 47
11 48
33 49
35 50
29 51
48 52
42 53
30 54
21 55
18 56
35 57
46 58
9 59
56 60
42 61
28 62
6 63
52 64
24 65
25 66
59 67
59 68
26 69
9 70
27 71
19 72
59 73
37 74
7 75
35 76
49 77
72 78
34 79
47 80
17 81
44 82
61 83
75 84
65 85
66 86
47 87
25 88
51 89
48 90
8 91
41 92
73 93
80 94
27 95
39 96
57 97
53 98
79 99
27 100
56 101
16 102
59 103
53 104
15 105
88 106
21 107
106 108
67 109
20 110
7 111
45 112
70 113
45 114
59 115
108 116
83 117
60 118
39 119
100 120
115 121
97 122
107 123
42 124
5 125
80 126
39 127
14 128
37 129
19 130
105 131
24 132
1 133
128 134
27 135
13 136
89 137
85 138
16 139
28 140
131 141
70 142
17 143
20 144
121 145
20 146
109 147
38 148
92 149
74 150
18 151
125 152
49 153
6 154
5 155
114 156
5 157
142 158
27 159
104 160
130 161
139 162
135 163
145 164
81 165
119 166
18 167
20 168
160 169
153 170
155 171
36 172
122 173
37 174
108 175
129 176
157 177
125 178
40 179
109 180
85 181
173 182
39 183
48 184
145 185
131 186
71 187
86 188
79 189
62 190
48 191
161 192
2 193
177 194
126 195
72 196
99 197
172 198
125 199
101 200
12 201
105 202
65 203
132 204
90 205
49 206
1 207
106 208
29 209
100 210
92 211
177 212
156 213
20 214
22 215
163 216
60 217
148 218
27 219
196 220
29 221
139 222
19 223
25 224
28 225
42 226
87 227
206 228
137 229
206 230
85 231
66 232
41 233
99 234
66 235
189 236
137 237
85 238
213 239
5 240
165 241
67 242
33 243
101 244
114 245
97 246
89 247
11 248
9 249
15 250
91 251
207 252
215 253
50 254
219 255
18 256
121 257
247 258
224 259
229 260
171 261
81 262
31 263
175 264
25 265
181 266
202 267
167 268
89 269
111 270
17 271
180 272
43 273
249 274
101 275
114 276
158 277
159 278
147 279
133 280
89 281
136 282
131 283
263 284
265 285
15 286
102 287
41 288
145 289
209 290
165 291
55 292
76 293
7 294
286 295
107 296
51 297
71 298
96 299
7 300
1 301
269 302
267 303
95 304
89 305
305 306
281 307
64 308
55 309
90 310
39 311
34 312
287 313
226 314
58 315
47 316
85 317
293 318
145 319
223 320
281 321
219 322
235 323
159 324
182 325
323 326
296 327
107 328
9 329
313 330
165 331
102 332
215 333
55 334
81 335
167 336
5 337
6 338
70 339
85 340
317 341
140 342
21 343
119 344
18 345
129 346
161 347
14 348
37 349
280 350
261 351
268 352
75 353
202 354
64 355
197 356
199 357
175 358
233 359
42 360
29 361
32 362
271 363
131 364
317 365
194 366
263 367
231 368
33 369
343 370
175 371
148 372
269 373
159 374
102 375
158 376
5 377
265 378
25 379
166 380
282 381
139 382
318 383
24 384
37 385
151 386
369 387
72 388
337 389
24 390
247 391
184 392
124 393
231 394
333 395
42 396
58 397
164 398
27 399
355 400
249 401
60 402
53 403
150 404
352 405
186 406
65 407
218 408
337 409
364 410
283 411
310 412
326 413
99 414
306 415
119 416
11 417
416 418
388 419
307 420
313 421
55 422
263 423
122 424
185 425
165 426
243 427
390 428
333 429
239 430
59 431
259 432
165 433
243 434
80 435
8 436
141 437
62 438
225 439
343 440
155 441
367 442
133 443
207 444
286 445
208 446
173 447
433 448
257 449
248 450
406 451
284 452
413 453
52 454
157 455
21 456
341 457
248 458
36 459
131 460
49 461
102 462
161 463
426 464
247 465
34 466
234 467
240 468
461 469
208 470
1 471
424 472
353 473
208 474
325 475
10 476
121 477
91 478
249 479
466 480
281 481
32 482
209 483
256 484
153 485
36 486
160 487
392 488
441 489
300 490
65 491
72 492
57 493
113 494
429 495
246 496
460 497
361 498
171 499
184 500
453 501
352 502
323 503
256 504
313 505
499 506
111 507
318 508
397 509
294 510
443 511
81 512
429 513
233 514
497 515
153 516
457 517
479 518
420 519
17 520
169 521
139 522
397 523
124 524
397 525
139 526
362 527
44 528
315 529
400 530
53 531
418 532
165 533
442 534
381 535
504 536
39 537
207 538
369 539
71 540
133 541
401 542
470 543
483 544
331 545
341 546
47 547
546 548
381 549
373 550
492 551
132 552
25 553
167 554
511 555
271 556
85 557
430 558
391 559
275 560
152 561
98 562
333 563
259 564
127 565
384 566
371 567
517 568
214 569
286 570
419 571
446 572
46 573
270 574
537 575
248 576
212 577
282 578
345 579
555 580
35 581
508 582
146 583
80 584
505 585
330 586
165 587
187 588
170 589
461 590
353 591
526 592
560 593
493 594
460 595
328 596
529 597
178 598
421 599
27 600
41 601
73 602
101 603
384 604
54 605
45 606
81 607
537 608
33 609
359 610
523 611
500 612
377 613
522 614
267 615
346 616
537 617
519 618
178 619
374 620
617 621
579 622
181 623
98 624
462 625
159 626
561 627
75 628
560 629
135 630
380 631
511 632
425 633
96 634
231 635
525 636
557 637
559 638
121 639
114 640
185 641
344 642
427 643
313 644
369 645
373 646
248 647
490 648
261 649
339 650
146 651
242 652
367 653
532 654
121 655
546 656
209 657
414 658
226 659
278 660
514 661
129 662
59 663
25 664
315 665
84 666
659 667
518 668
359 669
273 670
183 671
223 672
321 673
48 674
237 675
453 676
83 677
660 678
427 679
561 680
605 681
661 682
69 683
123 684
79 685
63 686
575 687
285 688
549 689
81 690
65 691
474 692
105 693
237 694
141 695
347 696
73 697
424 698
488 699
217 700
357 701
338 702
51 703
326 704
544 705
397 706
359 707
662 708
520 709
660 710
422 711
583 712
617 713
652 714
13 715
15 716
129 717
380 718
130 719
324 720
42 721
103 722
587 723
668 724
593 725
321 726
287 727
313 728
637 729
517 730
407 731
611 732
655 733
187 734
111 735
420 736
136 737
506 738
129 739
309 740
534 741
472 742
712 743
175 744
202 745
317 746
82 747
487 748
741 749
610 750
248 751
731 752
189 753
477 754
625 755
96 756
520 757
670 758
355 759
588 760
74 761
732 762
406 763
686 764
268 765
348 766
69 767
34 768
473 769
305 770
462 771
247 772
498 773
424 774
259 775
235 776
745 777
228 778
133 779
154 780
331 781
512 782
561 783
249 784
681 785
127 786
675 787
703 788
612 789
273 790
603 791
683 792
513 793
766 794
489 795
318 796
413 797
543 798
151 799
778 800
179 801
62 802
414 803
786 804
701 805
41 806
769 807
428 808
241 809
528 810
506 811
462 812
269 813
188 814
752 815
271 816
646 817
749 818
327 819
642 820
773 821
61 822
261 823
415 824
704 825
171 826
263 827
695 828
821 829
49 830
141 831
361 832
421 833
517 834
209 835
129 836
519 837
516 838
313 839
348 840
637 841
586 842
500 843
412 844
281 845
114 846
175 847
352 848
361 849
9 850
49 851
756 852
398 853
781 854
589 855
158 856
377 857
20 858
31 859
852 860
450 861
833 862
245 863
254 864
189 865
370 866
308 867
623 868
812 869
308 870
66 871
701 872
30 873
717 874
195 875
519 876
773 877
175 878
618 879
659 880
64 881
307 882
267 883
530 884
428 885
331 886
219 887
777 888
298 889
832 890
108 891
296 892
548 893
71 894
265 895
421 896
543 897
825 898
105 899
587 900
597 901
449 902
385 903
162 904
592 905
829 906
59 907
218 908
169 909
202 910
89 911
273 912
877 913
282 914
435 915
886 916
502 917
135 918
439 919
255 920
307 921
478 922
607 923
858 924
849 925
889 926
616 927
887 928
495 929
742 930
83 931
604 932
244 933
703 934
247 935
844 936
673 937
175 938
744 939
686 940
438 941
595 942
841 943
20 944
487 945
31 946
188 947
397 948
237 949
53 950
555 951
430 952
823 953
537 954
687 955
167 956
9 957
171 958
956 959
758 960
286 961
241 962
791 963
114 964
175 965
563 966
392 967
397 968
877 969
435 970
616 971
836 972
763 973
773 974
468 975
707 976
791 977
50 978
25 979
103 980
633 981
632 982
245 983
873 984
131 985
870 986
666 987
54 988
684 989
435 990
533 991
714 992
92 993
900 994
39 995
795 996
542 997
385 998
967 999
382 1000
601 1001
501 1002
222 1003
730 1004
1001 1005
207 1006
447 1007
60 1008
921 1009
874 1010
745 1011
605 1012
724 1013
750 1014
285 1015
626 1016
767 1017
229 1018
797 1019
792 1020
312 1021
667 1022
103 1023
135 1024
1009 1025
302 1026
309 1027
581 1028
113 1029
277 1030
631 1031
566 1032
922 1033
466 1034
295 1035
487 1036
605 1037
78 1038
418 1039
611 1040
947 1041
222 1042
473 1043
571 1044
405 1045
713 1046
299 1047
235 1048
279 1049
114 1050
749 1051
97 1052
937 1053
660 1054
517 1055
363 1056
963 1057
233 1058
644 1059
621 1060
625 1061
440 1062
563 1063
17 1064
417 1065
512 1066
755 1067
12 1068
569 1069
543 1070
943 1071
563 1072
261 1073
440 1074
329 1075
921 1076
968 1077
163 1078
1029 1079
942 1080
940 1081
272 1082
777 1083
1073 1084
756 1085
993 1086
480 1087
750 1088
651 1089
447 1090
318 1091
559 1092
205 1093
936 1094
21 1095
857 1096
143 1097
709 1098
628 1099
459 1100
923 1101
638 1102
611 1103
666 1104
696 1105
221 1106
318 1107
418 1108
907 1109
425 1110
255 1111
78 1112
335 1113
687 1114
633 1115
866 1116
390 1117
460 1118
603 1119
832 1120
645 1121
775 1122
1115 1123
144 1124
775 1125
175 1126
706 1127
983 1128
725 1129
1036 1130
671 1131
878 1132
950 1133
915 1134
222 1135
1001 1136
333 1137
518 1138
1010 1139
364 1140
137 1141
1078 1142
43 1143
744 1144
101 1145
753 1146
1127 1147
397 1148
105 1149
953 1150
1023 1151
118 1152
813 1153
1139 1154
387 1155
582 1156
973 1157
352 1158
992 1159
279 1160
457 1161
301 1162
222 1163
209 1164
237 1165
335 1166
1157 1167
628 1168
16 1169
517 1170
85 1171
258 1172
861 1173
708 1174
477 1175
1145 1176
172 1177
1076 1178
470 1179
228 1180
195 1181
447 1182
533 1183
91 1184
841 1185
568 1186
649 1187
237 1188
617 1189
253 1190
218 1191
172 1192
421 1193
492 1194
233 1195
19 1196
1151 1197
1097 1198
878 1199
394 1200
525 1201
901 1202
279 1203
934 1204
425 1205
123 1206
93 1207
1148 1208
1061 1209
1174 1210
850 1211
236 1212
409 1213
530 1214
1075 1215
889 1216
151 1217
1133 1218
175 1219
462 1220
30 1221
1137 1222
1077 1223
258 1224
1087 1225
1113 1226
751 1227
914 1228
680 1229
771 1230
1089 1231
1073 1232
625 1233
1214 1234
726 1235
543 1236
607 1237
70 1238
505 1239
408 1240
872 1241
269 1242
223 1243
949 1244
691 1245
1073 1246
1 1247
432 1248
337 1249
740 1250
703 1251
476 1252
1149 1253
707 1254
657 1255
224 1256
578 1257
1 1258
418 1259
769 1260
902 1261
1144 1262
627 1263
416 1264
1125 1265
121 1266
271 1267
1215 1268
1061 1269
58 1270
1199 1271
464 1272
93 1273
120 1274
609 1275
1101 1276
1145 1277
250 1278
421 1279
1168 1280
537 1281
387 1282
983 1283
3 1284
149 1285
961 1286
1253 1287
1 1288
833 1289
1049 1290
405 1291
33 1292
811 1293
646 1294
890 1295
978 1296
1169 1297
225 1298
95 1299
1045 1300
590 1301
187 1302
1185 1303
543 1304
1062 1305
352 1306
751 1307
822 1308
785 1309
124 1310
401 1311
291 1312
1232 1313
336 1314
1039 1315
674 1316
691 1317
766 1318
687 1319
1292 1320
6 1321
345 1322
1152 1323
1031 1324
647 1325
577 1326
59 1327
624 1328
155 1329
21 1330
659 1331
472 1332
1013 1333
847 1334
107 1335
1107 1336
1131 1337
1223 1338
161 1339
694 1340
864 1341
741 1342
545 1343
16 1344
663 1345
135 1346
1328 1347
710 1348
747 1349
391 1350
327 1351
42 1352
615 1353
828 1354
1221 1355
435 1356
385 1357
1094 1358
701 1359
1016 1360
961 1361
709 1362
285 1363
1190 1364
13 1365
340 1366
299 1367
1209 1368
153 1369
521 1370
413 1371
646 1372
1369 1373
947 1374
1183 1375
746 1376
616 1377
473 1378
1156 1379
1379 1380
549 1381
1378 1382
1185 1383
523 1384
513 1385
316 1386
554 1387
868 1388
247 1389
872 1390
815 1391
1117 1392
214 1393
1228 1394
489 1395
109 1396
335 1397
935 1398
667 1399
489 1400
1211 1401
1091 1402
369 1403
415 1404
419 1405
582 1406
1241 1407
865 1408
45 1409
1372 1410
696 1411
344 1412
8 1413
1243 1414
117 1415
567 1416
691 1417
1006 1418
231 1419
1289 1420
1099 1421
237 1422
147 1423
663 1424
252 1425
508 1426
1409 1427
297 1428
655 1429
97 1430
267 1431
1082 1432
185 1433
1406 1434
323 1435
33 1436
229 1437
131 1438
729 1439
1252 1440
893 1441
673 1442
1293 1443
1242 1444
617 1445
711 1446
246 1447
234 1448
1105 1449
126 1450
1321 1451
5 1452
387 1453
723 1454
1295 1455
158 1456
765 1457
1169 1458
195 1459
201 1460
1381 1461
1008 1462
324 1463
918 1464
741 1465
245 1466
545 1467
83 1468
657 1469
784 1470
165 1471
758 1472
1125 1473
1231 1474
209 1475
634 1476
477 1477
902 1478
641 1479
98 1480
481 1481
1258 1482
927 1483
184 1484
1399 1485
1025 1486
1093 1487
995 1488
950 1489
182 1490
874 1491
1470 1492
232 1493
638 1494
519 1495
563 1496
354 1497
1008 1498
1307 1499
1107 1500
1391 1501
1043 1502
94 1503
574 1504
1227 1505
1083 1506
258 1507
669 1508
921 1509
1079 1510
797 1511
422 1512
1137 1513
6 1514
841 1515
1359 1516
801 1517
1042 1518
1139 1519
1330 1520
465 1521
1025 1522
1091 1523
411 1524
653 1525
37 1526
1043 1527
587 1528
576 1529
602 1530
1149 1531
564 1532
57 1533
888 1534
59 1535
177 1536
1299 1537
1025 1538
243 1539
43 1540
738 1541
1362 1542
379 1543
67 1544
501 1545
1013 1546
1319 1547
722 1548
717 1549
781 1550
609 1551
922 1552
1303 1553
1081 1554
377 1555
1546 1556
1205 1557
583 1558
1131 1559
896 1560
636 1561
242 1562
159 1563
1514 1564
624 1565
1300 1566
834 1567
177 1568
813 1569
361 1570
797 1571
944 1572
1102 1573
222 1574
455 1575
1498 1576
585 1577
349 1578
813 1579
267 1580
845 1581
403 1582
289 1583
413 1584
497 1585
20 1586
101 1587
890 1588
111 1589
629 1590
234 1591
1351 1592
1139 1593
1297 1594
513 1595
226 1596
296 1597
1315 1598
127 1599
1406 1600
1165 1601
440 1602
1395 1603
1434 1604
29 1605
196 1606
597 1607
1419 1608
1469 1609
1165 1610
67 1611
1504 1612
663 1613
624 1614
359 1615
659 1616
801 1617
1041 1618
1568 1619
664 1620
1284 1621
1298 1622
1305 1623
1417 1624
555 1625
319 1626
1193 1627
780 1628
1313 1629
1130 1630
1476 1631
576 1632
285 1633
1588 1634
1027 1635
893 1636
640 1637
988 1638
1173 1639
154 1640
1297 1641
731 1642
453 1643
707 1644
785 1645
295 1646
577 1647
669 1648
354 1649
37 1650
442 1651
1380 1652
1123 1653
326 1654
347 1655
962 1656
1050 1657
1144 1658
1074 1659
570 1660
429 1661
746 1662
1038 1663
1456 1664
810 1665
455 1666
1497 1667
307 1668
1419 1669
1372 1670
819 1671
1541 1672
733 1673
119 1674
1259 1675
908 1676
1428 1677
888 1678
1645 1679
1348 1680
298 1681
837 1682
811 1683
1669 1684
955 1685
951 1686
511 1687
1297 1688
1453 1689
660 1690
79 1691
646 1692
1405 1693
590 1694
950 1695
1118 1696
313 1697
767 1698
1517 1699
624 1700
1653 1701
1616 1702
641 1703
1338 1704
1281 1705
831 1706
484 1707
1274 1708
621 1709
1140 1710
1391 1711
1695 1712
1568 1713
649 1714
493 1715
837 1716
391 1717
1484 1718
534 1719
977 1720
1652 1721
29 1722
1394 1723
779 1724
101 1725
1504 1726
1533 1727
882 1728
35 1729
1144 1730
396 1731
1095 1732
1157 1733
1590 1734
1042 1735
252 1736
1433 1737
1534 1738
1009 1739
624 1740
295 1741
1199 1742
361 1743
463 1744
120 1745
917 1746
638 1747
522 1748
282 1749
647 1750
1273 1751
853 1752
153 1753
483 1754
612 1755
223 1756
803 1757
1177 1758
1183 1759
791 1760
359 1761
532 1762
773 1763
808 1764
1061 1765
524 1766
1740 1767
939 1768
1353 1769
897 1770
688 1771
542 1772
1745 1773
1043 1774
1755 1775
1675 1776
1093 1777
1533 1778
1369 1779
1692 1780
1075 1781
819 1782
391 1783
165 1784
1183 1785
1599 1786
1336 1787
199 1788
1021 1789
363 1790
984 1791
1142 1792
753 1793
1379 1794
471 1795
1784 1796
5 1797
305 1798
877 1799
1706 1800
1475 1801
1568 1802
1071 1803
1187 1804
925 1805
732 1806
1782 1807
715 1808
253 1809
1072 1810
126 1811
637 1812
711 1813
805 1814
407 1815
1597 1816
51 1817
1037 1818
437 1819
1410 1820
1001 1821
1479 1822
273 1823
1017 1824
622 1825
758 1826
1435 1827
955 1828
1229 1829
1349 1830
1073 1831
1293 1832
1117 1833
1067 1834
1737 1835
1451 1836
73 1837
937 1838
1450 1839
724 1840
601 1841
1555 1842
495 1843
415 1844
1217 1845
32 1846
1447 1847
1574 1848
1124 1849
79 1850
759 1851
711 1852
89 1853
369 1854
1337 1855
740 1856
605 1857
1274 1858
1115 1859
49 1860
624 1861
172 1862
1523 1863
759 1864
909 1865
887 1866
1828 1867
947 1868
668 1869
219 1870
1666 1871
527 1872
841 1873
1661 1874
1755 1875
1453 1876
841 1877
883 1878
68 1879
1199 1880
1094 1881
284 1882
881 1883
919 1884
238 1885
94 1886
359 1887
1780 1888
585 1889
649 1890
811 1891
1392 1892
1111 1893
1866 1894
1082 1895
339 1896
1141 1897
6 1898
982 1899
427 1900
625 1901
261 1902
881 1903
289 1904
5 1905
112 1906
1643 1907
1536 1908
1361 1909
549 1910
1803 1911
983 1912
909 1913
1577 1914
270 1915
1663 1916
667 1917
644 1918
441 1919
408 1920
1665 1921
996 1922
71 1923
1617 1924
333 1925
483 1926
43 1927
1315 1928
123 1929
293 1930
1921 1931
491 1932
213 1933
1200 1934
1145 1935
130 1936
1689 1937
1003 1938
529 1939
1933 1940
1043 1941
1816 1942
1393 1943
1933 1944
1693 1945
1268 1946
921 1947
1858 1948
852 1949
894 1950
1395 1951
844 1952
837 1953
322 1954
1519 1955
1587 1956
611 1957
1599 1958
35 1959
141 1960
411 1961
1231 1962
689 1963
654 1964
719 1965
1419 1966
679 1967
446 1968
1776 1969
1700 1970
1891 1971
456 1972
435 1973
85 1974
1189 1975
1336 1976
1153 1977
1840 1978
549 1979
158 1980
1220 1981
142 1982
1034 1983
1684 1984
1168 1985
1356 1986
1139 1987
1436 1988
1949 1989
147 1990
1387 1991
162 1992
613 1993
1105 1994
1355 1995
433 1996
37 1997
1954 1998
283 1999
895 2000
840 2001
1582 2002
495 2003
1079 2004
207 2005
374 2006
1905 2007
770 2008
1006 2009
931 2010
1199 2011
1875 2012
1633 2013
826 2014
933 2015
1493 2016
1945 2017
1355 2018
1007 2019
1805 2020
853 2021
594 2022
721 2023
205 2024
969 2025
199 2026
653 2027
252 2028
1745 2029
973 2030
993 2031
1185 2032
373 2033
1907 2034
1381 2035
254 2036
1007 2037
936 2038
1659 2039
2025 2040
221 2041
1340 2042
2027 2043
1330 2044
1021 2045
417 2046
1419 2047
18 2048
897 2049
310 2050
1265 2051
160 2052
1003 2053
473 2054
1513 2055
1340 2056
1745 2057
1276 2058
1763 2059
1935 2060
625 2061
522 2062
1247 2063
59 2064
1769 2065
1978 2066
1799 2067
1514 2068
949 2069
1045 2070
1799 2071
683 2072
1965 2073
892 2074
2033 2075
300 2076
820 2077
1031 2078
1362 2079
1470 2080
2049 2081
1741 2082
417 2083
1196 2084
1161 2085
993 2086
1413 2087
1940 2088
1417 2089
101 2090
1532 2091
1571 2092
1053 2093
1966 2094
793 2095
882 2096
105 2097
241 2098
2091 2099
1297 2100
296 2101
548 2102
269 2103
1459 2104
1592 2105
291 2106
169 2107
1799 2108
2033 2109
1740 2110
1131 2111
778 2112
1849 2113
255 2114
1415 2115
1459 2116
1552 2117
143 2118
2021 2119
1176 2120
396 2121
1804 2122
1230 2123
2002 2124
201 2125
621 2126
619 2127
1187 2128
493 2129
1327 2130
1125 2131
1955 2132
191 2133
1926 2134
120 2135
1309 2136
862 2137
753 2138
1313 2139
34 2140
589 2141
1488 2142
811 2143
106 2144
896 2145
1845 2146
1179 2147
1968 2148
1113 2149
1533 2150
1733 2151
896 2152
1120 2153
1309 2154
1963 2155
1636 2156
841 2157
1443 2158
142 2159
1069 2160
2151 2161
334 2162
1090 2163
2134 2164
688 2165
1685 2166
1610 2167
1153 2168
801 2169
1940 2170
1690 2171
732 2172
561 2173
742 2174
540 2175
1370 2176
581 2177
1399 2178
961 2179
1149 2180
1221 2181
955 2182
1459 2183
44 2184
1103 2185
86 2186
1454 2187
646 2188
1091 2189
1990 2190
1211 2191
243 2192
566 2193
1090 2194
1491 2195
43 2196
1169 2197
48 2198
1763 2199
2123 2200
1787 2201
445 2202
1029 2203
1869 2204
1013 2205
1249 2206
1073 2207
2024 2208
1024 2209
388 2210
557 2211
781 2212
2081 2213
414 2214
896 2215
1135 2216
345 2217
2148 2218
1734 2219
938 2220
920 2221
816 2222
117 2223
1676 2224
1885 2225
1174 2226
2105 2227
187 2228
346 2229
2050 2230
1231 2231
621 2232
313 2233
1687 2234
1113 2235
1826 2236
1791 2237
1594 2238
1171 2239
540 2240
2173 2241
863 2242
2236 2243
130 2244
325 2245
1887 2246
1705 2247
227 2248
1765 2249
779 2250
305 2251
1895 2252
57 2253
404 2254
109 2255
889 2256
1363 2257
1489 2258
1977 2259
1910 2260
1695 2261
829 2262
1070 2263
264 2264
1793 2265
783 2266
2036 2267
460 2268
1061 2269
19 2270
1074 2271
1101 2272
245 2273
1400 2274
53 2275
1937 2276
585 2277
598 2278
703 2279
519 2280
144 2281
1965 2282
1911 2283
262 2284
1749 2285
1314 2286
1693 2287
1414 2288
473 2289
1554 2290
897 2291
2144 2292
327 2293
1670 2294
401 2295
1815 2296
395 2297
1217 2298
1862 2299
1859 2300
1605 2301
897 2302
93 2303
456 2304
1208 2305
2242 2306
669 2307
1597 2308
410 2309
1025 2310
957 2311
572 2312
713 2313
1870 2314
885 2315
581 2316
539 2317
1038 2318
1789 2319
1203 2320
1009 2321
80 2322
1921 2323
1879 2324
757 2325
282 2326
491 2327
2056 2328
2021 2329
1467 2330
927 2331
1190 2332
1421 2333
1626 2334
1881 2335
1821 2336
2108 2337
1836 2338
1143 2339
1129 2340
2241 2341
2082 2342
9 2343
827 2344
1477 2345
2046 2346
2020 2347
1723 2348
1931 2349
603 2350
1035 2351
147 2352
540 2353
1901 2354
2210 2355
1580 2356
1015 2357
1467 2358
1319 2359
740 2360
73 2361
805 2362
1205 2363
50 2364
1309 2365
1097 2366
285 2367
48 2368
1121 2369
1194 2370
1595 2371
778 2372
659 2373
278 2374
375 2375
516 2376
1317 2377
985 2378
1322 2379
1849 2380
1343 2381
433 2382
107 2383
1223 2384
638 2385
1650 2386
319 2387
334 2388
2287 2389
1022 2390
2055 2391
203 2392
1385 2393
988 2394
1970 2395
1904 2396
1249 2397
2338 2398
1045 2399
1694 2400
1089 2401
1566 2402
1753 2403
363 2404
2225 2405
907 2406
1816 2407
1942 2408
589 2409
1126 2410
1629 2411
59 2412
891 2413
475 2414
1209 2415
1873 2416
1535 2417
1889 2418
2109 2419
70 2420
1723 2421
1915 2422
1101 2423
1899 2424
821 2425
1798 2426
1377 2427
2073 2428
1124 2429
1105 2430
1703 2431
2152 2432
1602 2433
674 2434
1205 2435
786 2436
212 2437
757 2438
1223 2439
813 2440
1822 2441
766 2442
348 2443
1809 2444
1019 2445
1012 2446
139 2447
358 2448
137 2449
203 2450
1583 2451
1288 2452
817 2453
1371 2454
2165 2455
2365 2456
217 2457
2024 2458
677 2459
563 2460
1188 2461
1792 2462
60 2463
292 2464
2005 2465
1548 2466
1191 2467
656 2468
723 2469
359 2470
2275 2471
1752 2472
1453 2473
2436 2474
463 2475
526 2476
881 2477
267 2478
75 2479
1178 2480
1779 2481
1690 2482
931 2483
260 2484
662 2485
1370 2486
895 2487
2002 2488
1245 2489
1192 2490
266 2491
2179 2492
337 2493
1922 2494
821 2495
1934 2496
1303 2497
1517 2498
9 2499
1353 2500
1457 2501
1206 2502
2163 2503
102 2504
1907 2505
635 2506
1925 2507
2132 2508
504 2509
1237 2510
2371 2511
566 2512
1529 2513
1450 2514
1772 2515
1908 2516
247 2517
1126 2518
2199 2519
1206 2520
519 2521
80 2522
569 2523
2447 2524
1689 2525
617 2526
793 2527
2164 2528
1078 2529
2524 2530
2447 2531
1361 2532
1227 2533
2041 2534
2093 2535
677 2536
1959 2537
619 2538
1873 2539
306 2540
165 2541
821 2542
2147 2543
553 2544
1622 2545
1839 2546
993 2547
1413 2548
1013 2549
742 2550
1585 2551
2290 2552
61 2553
1055 2554
2169 2555
2471 2556
968 2557
1809 2558
1777 2559
1284 2560
198 2561
25 2562
2049 2563
1667 2564
1037 2565
1378 2566
1695 2567
1132 2568
1489 2569
1026 2570
461 2571
1337 2572
2157 2573
182 2574
333 2575
696 2576
1211 2577
662 2578
1347 2579
1654 2580
2555 2581
671 2582
226 2583
1466 2584
2549 2585
944 2586
2265 2587
370 2588
79 2589
2451 2590
2085 2591
741 2592
143 2593
2385 2594
1108 2595
620 2596
2549 2597
2281 2598
1793 2599
2203 2600
2255 2601
1614 2602
9 2603
278 2604
657 2605
21 2606
175 2607
1934 2608
1319 2609
230 2610
1863 2611
1322 2612
2581 2613
755 2614
929 2615
2115 2616
2105 2617
613 2618
400 2619
1422 2620
2515 2621
1076 2622
110 2623
1616 2624
1649 2625
1431 2626
1997 2627
2554 2628
268 2629
322 2630
726 2631
1624 2632
1725 2633
816 2634
768 2635
1590 2636
2227 2637
1699 2638
2545 2639
1559 2640
1961 2641
1478 2642
2145 2643
1063 2644
439 2645
518 2646
1148 2647
2551 2648
17 2649
1611 2650
2487 2651
725 2652
393 2653
134 2654
1989 2655
102 2656
1301 2657
284 2658
2081 2659
265 2660
1414 2661
149 2662
627 2663
96 2664
2081 2665
1929 2666
2650 2667
2092 2668
1961 2669
208 2670
1379 2671
2610 2672
960 2673
297 2674
469 2675
1234 2676
2245 2677
2264 2678
1037 2679
1651 2680
971 2681
717 2682
987 2683
2634 2684
1021 2685
2110 2686
1987 2687
1635 2688
1913 2689
1889 2690
2023 2691
1424 2692
2436 2693
754 2694
1040 2695
880 2696
1497 2697
435 2698
1495 2699
1429 2700
769 2701
746 2702
365 2703
827 2704
1903 2705
1837 2706
1623 2707
1639 2708
2575 2709
1759 2710
2677 2711
2514 2712
2667 2713
1834 2714
2019 2715
1761 2716
2585 2717
2663 2718
2663 2719
781 2720
57 2721
324 2722
175 2723
1094 2724
787 2725
1217 2726
135 2727
1479 2728
235 2729
414 2730
1789 2731
1230 2732
1792 2733
1573 2734
33 2735
1746 2736
1417 2737
1422 2738
1889 2739
1166 2740
1193 2741
607 2742
1395 2743
1280 2744
1523 2745
2006 2746
733 2747
2279 2748
934 2749
1640 2750
152 2751
2213 2752
2737 2753
2122 2754
721 2755
1380 2756
238 2757
2431 2758
980 2759
425 2760
16 2761
2357 2762
583 2763
28 2764
714 2765
1128 2766
1991 2767
627 2768
1154 2769
1115 2770
612 2771
998 2772
66 2773
1033 2774
489 2775
890 2776
1882 2777
2731 2778
1466 2779
2400 2780
1163 2781
1558 2782
1439 2783
1332 2784
1577 2785
473 2786
2033 2787
2308 2788
313 2789
1797 2790
1489 2791
2682 2792
613 2793
842 2794
2771 2795
1815 2796
2551 2797
671 2798
1163 2799
349 2800
2785 2801
348 2802
1945 2803
1826 2804
189 2805
2581 2806
2248 2807
565 2808
1217 2809
457 2810
370 2811
2771 2812
1499 2813
1912 2814
2722 2815
2572 2816
625 2817
1517 2818
983 2819
1615 2820
1989 2821
2352 2822
2194 2823
355 2824
965 2825
2148 2826
1257 2827
2385 2828
1225 2829
1713 2830
2383 2831
1642 2832
1505 2833
1803 2834
2763 2835
2810 2836
1926 2837
1819 2838
66 2839
2742 2840
993 2841
924 2842
1819 2843
1471 2844
1294 2845
2811 2846
2017 2847
2251 2848
1651 2849
1600 2850
2281 2851
2275 2852
1296 2853
1450 2854
427 2855
2143 2856
396 2857
1528 2858
647 2859
1074 2860
2835 2861
2226 2862
425 2863
855 2864
2716 2865
394 2866
462 2867
2539 2868
53 2869
1975 2870
1894 2871
965 2872
2517 2873
607 2874
1517 2875
851 2876
653 2877
2346 2878
1906 2879
2175 2880
1601 2881
936 2882
2691 2883
2699 2884
139 2885
558 2886
2707 2887
1889 2888
1817 2889
1308 2890
137 2891
1903 2892
73 2893
128 2894
2609 2895
139 2896
2664 2897
2058 2898
969 2899
2586 2900
825 2901
110 2902
2879 2903
1310 2904
2626 2905
968 2906
366 2907
473 2908
1849 2909
2495 2910
1455 2911
2335 2912
1993 2913
2120 2914
1269 2915
2193 2916
360 2917
1983 2918
1185 2919
236 2920
1643 2921
1854 2922
897 2923
948 2924
1546 2925
2022 2926
1680 2927
2415 2928
81 2929
983 2930
715 2931
2533 2932
201 2933
1 2934
574 2935
1846 2936
124 2937
1513 2938
965 2939
1031 2940
449 2941
856 2942
286 2943
1636 2944
857 2945
1415 2946
2165 2947
1056 2948
557 2949
847 2950
913 2951
70 2952
2347 2953
2514 2954
1578 2955
2413 2956
2521 2957
2444 2958
1088 2959
2651 2960
1419 2961
705 2962
2289 2963
476 2964
2678 2965
2281 2966
1579 2967
1536 2968
380 2969
2749 2970
51 2971
107 2972
260 2973
2203 2974
2735 2975
2583 2976
521 2977
2366 2978
705 2979
2808 2980
748 2981
1987 2982
2871 2983
2013 2984
421 2985
2977 2986
111 2987
56 2988
1295 2989
2010 2990
898 2991
2817 2992
2423 2993
2951 2994
1599 2995
2855 2996
1223 2997
533 2998
1381 2999
608 3000
220 3001
120 3002
1121 3003
2805 3004
2769 3005
2850 3006
2202 3007
2825 3008
65 3009
299 3010
2575 3011
250 3012
2160 3013
423 3014
695 3015
1631 3016
213 3017
441 3018
2935 3019
634 3020
695 3021
799 3022
1875 3023
1334 3024
1909 3025
1400 3026
2612 3027
1688 3028
1330 3029
1475 3030
2285 3031
518 3032
2838 3033
1493 3034
2949 3035
153 3036
1527 3037
2304 3038
2735 3039
918 3040
1164 3041
204 3042
2962 3043
1884 3044
2093 3045
1797 3046
1381 3047
2331 3048
2371 3049
1959 3050
1197 3051
3029 3052
2070 3053
593 3054
787 3055
1723 3056
1883 3057
1818 3058
1555 3059
948 3060
1124 3061
690 3062
886 3063
2000 3064
864 3065
2093 3066
625 3067
650 3068
981 3069
1186 3070
241 3071
540 3072
2859 3073
2072 3074
1111 3075
2633 3076
2755 3077
67 3078
2171 3079
2823 3080
1674 3081
3022 3082
1607 3083
1369 3084
869 3085
2626 3086
1403 3087
512 3088
219 3089
2318 3090
1611 3091
1420 3092
1569 3093
2726 3094
3005 3095
1891 3096
1670 3097
1792 3098
2552 3099
1836 3100
1005 3101
1300 3102
2474 3103
1896 3104
2758 3105
362 3106
2945 3107
1709 3108
1377 3109
296 3110
2745 3111
1672 3112
147 3113
572 3114
2636 3115
150 3116
1986 3117
3024 3118
2839 3119
2833 3120
2209 3121
671 3122
2397 3123
609 3124
997 3125
311 3126
725 3127
1934 3128
2169 3129
2850 3130
2016 3131
1139 3132
269 3133
823 3134
1171 3135
403 3136
1263 3137
3102 3138
877 3139
2171 3140
32 3141
2641 3142
177 3143
1148 3144
1817 3145
1637 3146
1339 3147
1048 3148
1120 3149
1565 3150
819 3151
1931 3152
2621 3153
2904 3154
2403 3155
1248 3156
2696 3157
2480 3158
2325 3159
2239 3160
1061 3161
1480 3162
1248 3163
1063 3164
3098 3165
1451 3166
1155 3167
611 3168
497 3169
2957 3170
753 3171
243 3172
2001 3173
2750 3174
2348 3175
2702 3176
909 3177
2409 3178
2251 3179
48 3180
3029 3181
1858 3182
1751 3183
2857 3184
1441 3185
3151 3186
1631 3187
2204 3188
365 3189
1400 3190
665 3191
1757 3192
1377 3193
485 3194
2991 3195
2761 3196
307 3197
567 3198
3073 3199
773 3200
2068 3201
936 3202
1677 3203
2127 3204
3117 3205
2357 3206
459 3207
1756 3208
641 3209
2872 3210
635 3211
2276 3212
2433 3213
2274 3214
1333 3215
1887 3216
49 3217
2997 3218
3155 3219
1913 3220
361 3221
744 3222
2728 3223
2807 3224
789 3225
3150 3226
2025 3227
1347 3228
1473 3229
338 3230
769 3231
1218 3232
1673 3233
3104 3234
4 3235
2917 3236
3109 3237
2716 3238
2167 3239
458 3240
2157 3241
977 3242
2557 3243
1016 3244
2667 3245
2764 3246
1047 3247
619 3248
2329 3249
1097 3250
793 3251
478 3252
905 3253
1467 3254
1557 3255
773 3256
2361 3257
152 3258
2183 3259
161 3260
2541 3261
510 3262
2483 3263
1916 3264
2689 3265
1832 3266
2865 3267
607 3268
457 3269
2864 3270
3041 3271
2032 3272
712 3273
2377 3274
217 3275
515 3276
2411 3277
231 3278
536 3279
1095 3280
2371 3281
3166 3282
2969 3283
2775 3284
2325 3285
2235 3286
256 3287
1561 3288
2177 3289
1135 3290
2273 3291
2083 3292
1201 3293
901 3294
451 3295
1575 3296
1057 3297
2001 3298
1333 3299
1539 3300
2362 3301
1520 3302
1727 3303
2286 3304
209 3305
1169 3306
2113 3307
2648 3308
1911 3309
3268 3310
2917 3311
2113 3312
1779 3313
2381 3314
2503 3315
3275 3316
1872 3317
696 3318
797 3319
2405 3320
1415 3321
265 3322
2641 3323
1953 3324
865 3325
3244 3326
2115 3327
2296 3328
1729 3329
2956 3330
763 3331
2084 3332
2193 3333
1928 3334
2997 3335
1625 3336
1801 3337
94 3338
3230 3339
328 3340
909 3341
1629 3342
2479 3343
3221 3344
2838 3345
2473 3346
2491 3347
2348 3348
1744 3349
673 3350
129 3351
723 3352
2816 3353
417 3354
2335 3355
1651 3356
697 3357
1093 3358
2330 3359
568 3360
22 3361
679 3362
200 3363
856 3364
662 3365
1547 3366
169 3367
2468 3368
1227 3369
226 3370
3331 3371
1795 3372
1091 3373
2794 3374
109 3375
2362 3376
187 3377
3350 3378
3194 3379
642 3380
3273 3381
1536 3382
561 3383
2495 3384
2465 3385
2105 3386
2875 3387
1699 3388
929 3389
372 3390
55 3391
200 3392
1717 3393
3070 3394
3057 3395
2350 3396
1825 3397
1910 3398
3317 3399
29 3400
435 3401
239 3402
1799 3403
1648 3404
836 3405
770 3406
850 3407
127 3408
2012 3409
570 3410
847 3411
2136 3412
2187 3413
665 3414
2187 3415
226 3416
2481 3417
352 3418
2909 3419
2629 3420
3129 3421
850 3422
2658 3423
3019 3424
1905 3425
637 3426
1427 3427
2902 3428
391 3429
3090 3430
857 3431
2718 3432
2625 3433
3181 3434
2323 3435
58 3436
1373 3437
2303 3438
67 3439
2320 3440
1461 3441
601 3442
650 3443
1288 3444
2661 3445
1704 3446
3175 3447
957 3448
2705 3449
1440 3450
1909 3451
1799 3452
677 3453
1593 3454
2391 3455
2724 3456
784 3457
1926 3458
1758 3459
2351 3460
2829 3461
995 3462
2627 3463
376 3464
1137 3465
1359 3466
1301 3467
694 3468
113 3469
2522 3470
3037 3471
2064 3472
1243 3473
728 3474
3009 3475
2133 3476
2733 3477
2675 3478
1344 3479
3243 3480
1205 3481
2152 3482
2165 3483
2896 3484
2109 3485
2198 3486
755 3487
2519 3488
2493 3489
2686 3490
305 3491
426 3492
785 3493
771 3494
1695 3495
2383 3496
1457 3497
653 3498
1337 3499
2838 3500
3457 3501
1700 3502
87 3503
2292 3504
937 3505
2768 3506
3313 3507
684 3508
2583 3509
1664 3510
2350 3511
2832 3512
1417 3513
17 3514
2221 3515
3167 3516
1894 3517
3327 3518
1823 3519
3332 3520
3467 3521
811 3522
282 3523
3135 3524
54 3525
2508 3526
601 3527
164 3528
3435 3529
910 3530
677 3531
3367 3532
717 3533
1472 3534
2228 3535
238 3536
534 3537
1904 3538
341 3539
43 3540
2019 3541
2574 3542
671 3543
1663 3544
1385 3545
827 3546
733 3547
2170 3548
2042 3549
2990 3550
359 3551
2852 3552
221 3553
1052 3554
3543 3555
3287 3556
1821 3557
2561 3558
1220 3559
1566 3560
1001 3561
2091 3562
819 3563
3327 3564
630 3565
3389 3566
1541 3567
1929 3568
3053 3569
1723 3570
3399 3571
2377 3572
1170 3573
2175 3574
668 3575
2141 3576
1417 3577
1366 3578
2641 3579
1290 3580
2781 3581
35 3582
1165 3583
2595 3584
1937 3585
3445 3586
2302 3587
1781 3588
1417 3589
3567 3590
3532 3591
2732 3592
241 3593
258 3594
1177 3595
2947 3596
1029 3597
1937 3598
490 3599
2916 3600
3209 3601
2310 3602
1943 3603
1766 3604
2739 3605
2917 3606
1737 3607
920 3608
2769 3609
2779 3610
2316 3611
2930 3612
883 3613
1629 3614
2087 3615
390 3616
2569 3617
2593 3618
1694 3619
3001 3620
2033 3621
2458 3622
887 3623
2940 3624
1141 3625
629 3626
727 3627
1706 3628
1661 3629
2555 3630
1647 3631
102 3632
1695 3633
633 3634
2387 3635
671 3636
241 3637
1875 3638
2243 3639
3081 3640
2523 3641
1807 3642
92 3643
1569 3644
2981 3645
383 3646
3265 3647
1990 3648
50 3649
2050 3650
3272 3651
1387 3652
1085 3653
1043 3654
1343 3655
2802 3656
1513 3657
1148 3658
2187 3659
3027 3660
3473 3661
2975 3662
3353 3663
1793 3664
2381 3665
2013 3666
683 3667
963 3668
996 3669
931 3670
2229 3671
355 3672
2252 3673
2656 3674
2431 3675
1760 3676
2981 3677
2370 3678
1913 3679
1970 3680
441 3681
744 3682
2663 3683
1022 3684
1137 3685
2771 3686
2515 3687
1201 3688
1855 3689
2468 3690
3533 3691
2077 3692
157 3693
1145 3694
3297 3695
3577 3696
429 3697
3133 3698
1491 3699
2433 3700
1713 3701
178 3702
3015 3703
2794 3704
3657 3705
159 3706
2178 3707
3566 3708
3533 3709
3233 3710
1117 3711
1010 3712
2997 3713
570 3714
12 3715
2964 3716
681 3717
1034 3718
3647 3719
2752 3720
961 3721
3353 3722
3650 3723
1779 3724
1761 3725
3708 3726
1892 3727
812 3728
991 3729
925 3730
3360 3731
3191 3732
3235 3733
2934 3734
1379 3735
926 3736
3041 3737
3722 3738
1935 3739
3113 3740
1694 3741
3546 3742
2645 3743
1213 3744
3485 3745
1307 3746
3455 3747
1541 3748
3494 3749
1516 3750
3311 3751
104 3752
2777 3753
2864 3754
2580 3755
298 3756
2869 3757
1887 3758
1333 3759
786 3760
780 3761
117 3762
3143 3763
2284 3764
1729 3765
1932 3766
2363 3767
3514 3768
1333 3769
1898 3770
305 3771
1308 3772
489 3773
2752 3774
225 3775
238 3776
882 3777
196 3778
1118 3779
2145 3780
1777 3781
762 3782
3383 3783
3037 3784
3420 3785
3417 3786
2894 3787
83 3788
1265 3789
2792 3790
2025 3791
2015 3792
3161 3793
2231 3794
491 3795
2677 3796
2575 3797
2700 3798
771 3799
2829 3800
2254 3801
2423 3802
213 3803
2514 3804
269 3805
11 3806
1361 3807
999 3808
3706 3809
1112 3810
3555 3811
1430 3812
1373 3813
1663 3814
3799 3815
1207 3816
1071 3817
870 3818
2375 3819
2492 3820
1361 3821
3366 3822
2191 3823
3204 3824
593 3825
3691 3826
1188 3827
1798 3828
1 3829
1455 3830
3011 3831
303 3832
1379 3833
3026 3834
1267 3835
1144 3836
3075 3837
1381 3838
724 3839
2473 3840
359 3841
1860 3842
757 3843
1368 3844
2559 3845
3593 3846
2290 3847
560 3848
401 3849
2312 3850
1989 3851
2245 3852
2525 3853
3155 3854
903 3855
3376 3856
2497 3857
1459 3858
2821 3859
2030 3860
1341 3861
3602 3862
1723 3863
818 3864
721 3865
404 3866
1068 3867
3403 3868
2141 3869
2291 3870
1565 3871
1212 3872
564 3873
2616 3874
3777 3875
237 3876
121 3877
3034 3878
3305 3879
1298 3880
1392 3881
3712 3882
1433 3883
2056 3884
2875 3885
3349 3886
1431 3887
1884 3888
3439 3889
290 3890
2470 3891
3016 3892
385 3893
3070 3894
9 3895
1379 3896
1595 3897
3593 3898
2262 3899
3119 3900
831 3901
1868 3902
2877 3903
901 3904
2296 3905
1214 3906
3466 3907
2927 3908
1413 3909
1552 3910
3385 3911
3530 3912
1189 3913
2539 3914
3424 3915
45 3916
1668 3917
1411 3918
2874 3919
2854 3920
1912 3921
1523 3922
2007 3923
639 3924
2912 3925
722 3926
1143 3927
2653 3928
3579 3929
3303 3930
3805 3931
988 3932
1341 3933
3012 3934
1938 3935
2130 3936
1267 3937
2885 3938
1111 3939
901 3940
3599 3941
1563 3942
1811 3943
2537 3944
837 3945
325 3946
2367 3947
3452 3948
2527 3949
1476 3950
2708 3951
2109 3952
2128 3953
1850 3954
2669 3955
73 3956
1408 3957
2854 3958
105 3959
1647 3960
3139 3961
3479 3962
743 3963
3538 3964
243 3965
2465 3966
3075 3967
264 3968
3503 3969
3173 3970
1093 3971
1654 3972
3969 3973
1501 3974
3405 3975
918 3976
2205 3977
1731 3978
1939 3979
1191 3980
2621 3981
548 3982
1344 3983
2277 3984
1907 3985
1632 3986
3281 3987
273 3988
2514 3989
3507 3990
205 3991
434 3992
3513 3993
3168 3994
1461 3995
803 3996
1537 3997
3880 3998
2039 3999
3136 4000
3518 4001
1950 4002
1103 4003
44 4004
3309 4005
1956 4006
57 4007
3448 4008
2955 4009
2329 4010
2848 4011
1936 4012
293 4013
3276 4014
1081 4015
3831 4016
3607 4017
1165 4018
256 4019
1018 4020
1947 4021
1215 4022
2105 4023
1740 4024
2449 4025
486 4026
571 4027
2391 4028
96 4029
1601 4030
2047 4031
1772 4032
1363 4033
2337 4034
2899 4035
2282 4036
1981 4037
762 4038
3821 4039
3106 4040
651 4041
1876 4042
3153 4043
201 4044
2310 4045
3577 4046
3787 4047
3069 4048
1790 4049
475 4050
1863 4051
2666 4052
2003 4053
3443 4054
3747 4055
4055 4056
105 4057
1394 4058
182 4059
3561 4060
3313 4061
1364 4062
2977 4063
1272 4064
211 4065
3917 4066
2079 4067
3319 4068
3730 4069
4038 4070
1891 4071
2534 4072
3961 4073
2445 4074
3729 4075
2346 4076
1872 4077
2500 4078
855 4079
2459 4080
689 4081
2325 4082
1789 4083
3684 4084
111 4085
1392 4086
2571 4087
114 4088
1621 4089
118 4090
1724 4091
3135 4092
3302 4093
1597 4094
1395 4095
1960 4096
3765 4097
1022 4098
715 4099
192 4100
3498 4101
290 4102
411 4103
2775 4104
4064 4105
2772 4106
1609 4107
268 4108
1930 4109
3743 4110
2782 4111
274 4112
2207 4113
358 4114
2239 4115
3432 4116
2561 4117
127 4118
1815 4119
2491 4120
2518 4121
10 4122
623 4123
2833 4124
2167 4125
1201 4126
3083 4127
1142 4128
193 4129
3173 4130
3811 4131
1710 4132
2881 4133
3228 4134
3195 4135
3777 4136
2415 4137
415 4138
3591 4139
1684 4140
3206 4141
2877 4142
2694 4143
1498 4144
1785 4145
537 4146
2859 4147
1206 4148
717 4149
2513 4150
2906 4151
2267 4152
3327 4153
3366 4154
729 4155
3941 4156
1948 4157
432 4158
3209 4159
633 4160
2415 4161
2114 4162
3709 4163
1644 4164
3813 4165
3534 4166
2397 4167
1526 4168
554 4169
1631 4170
364 4171
1113 4172
677 4173
4077 4174
2799 4175
3928 4176
3054 4177
4169 4178
543 4179
2859 4180
924 4181
2189 4182
3669 4183
828 4184
233 4185
2137 4186
135 4187
935 4188
3237 4189
2266 4190
3023 4191
1077 4192
1055 4193
1377 4194
3603 4195
2276 4196
2053 4197
3215 4198
3931 4199
894 4200
3889 4201
141 4202
199 4203
2598 4204
1138 4205
3661 4206
3012 4207
2154 4208
1509 4209
3259 4210
569 4211
1128 4212
1488 4213
2323 4214
142 4215
2558 4216
848 4217
1510 4218
871 4219
3959 4220
1818 4221
4126 4222
4008 4223
2169 4224
2521 4225
708 4226
3093 4227
168 4228
2612 4229
16 4230
2910 4231
3722 4232
822 4233
2694 4234
721 4235
2453 4236
631 4237
1241 4238
2499 4239
1688 4240
1081 4241
2779 4242
2475 4243
1015 4244
795 4245
1320 4246
1894 4247
1068 4248
2377 4249
89 4250
1402 4251
3227 4252
839 4253
1370 4254
781 4255
3355 4256
2402 4257
4098 4258
2441 4259
215 4260
2355 4261
1939 4262
2091 4263
25 4264
3629 4265
3273 4266
1191 4267
3511 4268
4044 4269
2502 4270
1443 4271
3137 4272
1825 4273
3151 4274
369 4275
855 4276
1326 4277
1682 4278
676 4279
156 4280
484 4281
2640 4282
4075 4283
637 4284
474 4285
3937 4286
397 4287
4012 4288
209 4289
1846 4290
1509 4291
1422 4292
1983 4293
1605 4294
3409 4295
776 4296
2697 4297
2261 4298
2372 4299
2613 4300
91 4301
3480 4302
1700 4303
3055 4304
3865 4305
322 4306
2545 4307
563 4308
625 4309
2705 4310
3339 4311
1548 4312
3873 4313
1204 4314
2605 4315
2408 4316
3037 4317
1774 4318
2410 4319
46 4320
2941 4321
2582 4322
49 4323
1684 4324
3005 4325
2296 4326
2335 4327
717 4328
25 4329
3486 4330
2379 4331
577 4332
3493 4333
3358 4334
2470 4335
1150 4336
1809 4337
2235 4338
3524 4339
1672 4340
1683 4341
2921 4342
1883 4343
3748 4344
2809 4345
768 4346
805 4347
1346 4348
2624 4349
938 4350
559 4351
1463 4352
201 4353
3712 4354
3267 4355
340 4356
281 4357
1960 4358
2759 4359
407 4360
2526 4361
397 4362
739 4363
668 4364
2349 4365
2169 4366
605 4367
736 4368
1227 4369
2719 4370
4073 4371
3172 4372
3117 4373
3134 4374
2089 4375
2998 4376
2060 4377
331 4378
3081 4379
4315 4380
2501 4381
756 4382
1477 4383
3634 4384
3715 4385
1596 4386
2857 4387
1381 4388
2961 4389
937 4390
3717 4391
1125 4392
1981 4393
4252 4394
1322 4395
896 4396
434 4397
1836 4398
2395 4399
1197 4400
721 4401
2243 4402
95 4403
4338 4404
3955 4405
4279 4406
2310 4407
1307 4408
4205 4409
130 4410
3091 4411
2792 4412
2057 4413
1070 4414
3669 4415
1004 4416
2689 4417
2797 4418
19 4419
415 4420
3144 4421
2080 4422
510 4423
1678 4424
3933 4425
25 4426
583 4427
1987 4428
2003 4429
4009 4430
3739 4431
1176 4432
1853 4433
4039 4434
2759 4435
3849 4436
1373 4437
3781 4438
4227 4439
666 4440
293 4441
3863 4442
3736 4443
467 4444
2725 4445
1260 4446
3018 4447
1517 4448
4379 4449
2396 4450
797 4451
1345 4452
438 4453
671 4454
2310 4455
833 4456
585 4457
1733 4458
2504 4459
4016 4460
3113 4461
2474 4462
1575 4463
3785 4464
3418 4465
3687 4466
1998 4467
249 4468
2198 4469
4149 4470
4039 4471
3736 4472
2695 4473
3218 4474
4421 4475
3622 4476
3705 4477
1960 4478
4097 4479
1464 4480
3653 4481
2753 4482
3099 4483
3715 4484
3096 4485
1133 4486
884 4487
3199 4488
586 4489
3531 4490
3521 4491
4242 4492
1004 4493
2523 4494
2399 4495
2376 4496
649 4497
130 4498
3248 4499
3618 4500
2214 4501
26 4502
2693 4503
2524 4504
2995 4505
1913 4506
2429 4507
2087 4508
81 4509
3023 4510
3949 4511
4078 4512
4054 4513
1310 4514
493 4515
1529 4516
2489 4517
539 4518
1051 4519
266 4520
4137 4521
2781 4522
1230 4523
3806 4524
3009 4525
1756 4526
3211 4527
4053 4528
2471 4529
475 4530
3611 4531
4186 4532
345 4533
1280 4534
239 4535
4124 4536
877 4537
3034 4538
3335 4539
1869 4540
3714 4541
4079 4542
1235 4543
140 4544
4291 4545
3394 4546
645 4547
1874 4548
2805 4549
3310 4550
2613 4551
410 4552
4167 4553
578 4554
1255 4555
2966 4556
433 4557
1306 4558
2553 4559
2774 4560
4257 4561
2330 4562
1003 4563
3210 4564
4493 4565
1016 4566
3518 4567
1729 4568
4067 4569
4331 4570
4329 4571
1932 4572
545 4573
249 4574
3203 4575
4488 4576
1798 4577
1963 4578
3853 4579
2350 4580
1423 4581
3727 4582
3877 4583
4166 4584
4305 4585
1536 4586
4432 4587
1790 4588
2094 4589
4549 4590
2669 4591
1330 4592
292 4593
1934 4594
3214 4595
4128 4596
4289 4597
3390 4598
4537 4599
2749 4600
1460 4601
3142 4602
495 4603
4160 4604
3734 4605
4154 4606
967 4607
4086 4608
499 4609
3311 4610
3387 4611
2218 4612
425 4613
2774 4614
1111 4615
2378 4616
4146 4617
1493 4618
4173 4619
3270 4620
1483 4621
1795 4622
619 4623
4235 4624
3625 4625
3615 4626
831 4627
3457 4628
2709 4629
1426 4630
2939 4631
642 4632
1021 4633
661 4634
2264 4635
1739 4636
877 4637
936 4638
4251 4639
1561 4640
265 4641
2014 4642
1187 4643
1290 4644
3059 4645
1699 4646
4491 4647
3287 4648
1647 4649
1780 4650
208 4651
4259 4652
1209 4653
2477 4654
3508 4655
804 4656
1621 4657
1286 4658
4316 4659
2129 4660
1565 4661
1734 4662
2847 4663
560 4664
1060 4665
4438 4666
4087 4667
387 4668
2511 4669
1106 4670
3128 4671
2842 4672
1069 4673
2287 4674
2017 4675
618 4676
4153 4677
2538 4678
1600 4679
421 4680
4116 4681
3676 4682
2483 4683
4534 4684
3659 4685
326 4686
236 4687
4423 4688
3003 4689
1304 4690
4613 4691
789 4692
289 4693
4251 4694
1623 4695
3968 4696
557 4697
3640 4698
853 4699
652 4700
4606 4701
3021 4702
762 4703
964 4704
3995 4705
3669 4706
1813 4707
3632 4708
3201 4709
1917 4710
3681 4711
2907 4712
1089 4713
2427 4714
981 4715
814 4716
3623 4717
2531 4718
1861 4719
4061 4720
693 4721
1273 4722
3555 4723
2745 4724
1557 4725
1374 4726
639 4727
753 4728
2072 4729
3101 4730
4433 4731
2237 4732
2205 4733
1919 4734
3265 4735
666 4736
3428 4737
2122 4738
1935 4739
1636 4740
1078 4741
4146 4742
561 4743
1330 4744
3869 4745
486 4746
3445 4747
4679 4748
203 4749
3522 4750
2846 4751
3093 4752
2832 4753
2106 4754
582 4755
837 4756
3512 4757
2224 4758
2453 4759
3165 4760
1953 4761
1126 4762
1442 4763
4318 4764
3982 4765
104 4766
2464 4767
3521 4768
873 4769
3381 4770
773 4771
827 4772
3433 4773
945 4774
701 4775
283 4776
1339 4777
2231 4778
3022 4779
1974 4780
2146 4781
2660 4782
3335 4783
3392 4784
1920 4785
2754 4786
3403 4787
2325 4788
2861 4789
233 4790
3091 4791
322 4792
569 4793
2901 4794
735 4795
3981 4796
241 4797
3001 4798
1491 4799
3060 4800
2301 4801
2867 4802
3434 4803
3766 4804
3251 4805
671 4806
369 4807
3451 4808
3393 4809
3791 4810
3539 4811
1587 4812
977 4813
604 4814
2105 4815
393 4816
3458 4817
3802 4818
1893 4819
1594 4820
2194 4821
4811 4822
3045 4823
3177 4824
1553 4825
1922 4826
2249 4827
3576 4828
825 4829
2581 4830
783 4831
3310 4832
911 4833
2646 4834
399 4835
2643 4836
2725 4837
65 4838
2912 4839
3079 4840
2753 4841
3448 4842
2949 4843
2419 4844
2389 4845
1380 4846
735 4847
4342 4848
2195 4849
4576 4850
1553 4851
11 4852
949 4853
901 4854
3143 4855
1519 4856
2581 4857
412 4858
3149 4859
2898 4860
3937 4861
3611 4862
338 4863
2554 4864
3273 4865
4767 4866
1111 4867
3768 4868
1753 4869
3802 4870
1961 4871
694 4872
29 4873
3614 4874
2188 4875
2765 4876
1861 4877
3742 4878
2448 4879
2606 4880
841 4881
1172 4882
855 4883
4842 4884
4477 4885
4679 4886
1277 4887
205 4888
1520 4889
3238 4890
2929 4891
4695 4892
1914 4893
3348 4894
1735 4895
279 4896
2205 4897
2045 4898
4339 4899
4295 4900
4481 4901
1335 4902
465 4903
4650 4904
3849 4905
3977 4906
897 4907
1166 4908
2576 4909
745 4910
3593 4911
2308 4912
1261 4913
606 4914
1606 4915
3912 4916
3565 4917
764 4918
4832 4919
2649 4920
4662 4921
3609 4922
3271 4923
4844 4924
3185 4925
2157 4926
3543 4927
608 4928
3955 4929
3997 4930
4607 4931
4675 4932
2828 4933
4032 4934
4447 4935
2296 4936
85 4937
4370 4938
1879 4939
2443 4940
1769 4941
4819 4942
698 4943
429 4944
3848 4945
3962 4946
1137 4947
3683 4948
3861 4949
4819 4950
820 4951
3230 4952
3801 4953
2362 4954
2370 4955
2878 4956
2049 4957
4148 4958
4337 4959
1377 4960
3007 4961
2589 4962
3814 4963
4617 4964
2813 4965
