6561
1 2
1 3
1 4
2 5
1 6
4 7
1 8
1 9
6 10
3 11
6 12
12 13
6 14
13 15
1 16
7 17
5 18
13 19
6 20
20 21
8 22
4 23
11 24
13 25
20 26
7 27
5 28
17 29
8 30
18 31
4 32
15 33
17 34
9 35
18 36
21 37
7 38
1 39
25 40
29 41
19 42
39 43
10 44
26 45
1 46
43 47
15 48
13 49
43 50
28 51
46 52
48 53
2 54
3 55
15 56
47 57
13 58
16 59
50 60
59 61
14 62
45 63
37 64
57 65
65 66
13 67
62 68
65 69
37 70
54 71
11 72
43 73
6 74
59 75
64 76
1 77
47 78
33 79
75 80
1 81
70 82
7 83
5 84
40 85
84 86
81 87
24 88
17 89
1 90
36 91
50 92
91 93
79 94
53 95
15 96
1 97
68 98
89 99
66 100
99 101
13 102
35 103
85 104
85 105
73 106
25 107
92 108
81 109
42 110
30 111
8 112
99 113
73 114
51 115
70 116
105 117
21 118
27 119
66 120
92 121
82 122
53 123
47 124
25 125
82 126
37 127
17 128
41 129
83 130
114 131
16 132
70 133
44 134
133 135
63 136
73 137
17 138
19 139
62 140
3 141
134 142
35 143
30 144
3 145
131 146
21 147
4 148
25 149
78 150
43 151
141 152
61 153
30 154
53 155
27 156
61 157
86 158
71 159
21 160
118 161
153 162
92 163
112 164
122 165
82 166
54 167
99 168
51 169
140 170
166 171
100 172
61 173
139 174
11 175
23 176
21 177
142 178
54 179
24 180
85 181
53 182
99 183
12 184
145 185
51 186
33 187
44 188
86 189
15 190
29 191
129 192
187 193
83 194
178 195
39 196
125 197
126 198
4 199
175 200
69 201
157 202
111 203
52 204
49 205
44 206
65 207
22 208
9 209
69 210
149 211
87 212
77 213
128 214
108 215
178 216
27 217
186 218
108 219
97 220
105 221
21 222
54 223
168 224
154 225
100 226
121 227
155 228
3 229
10 230
25 231
3 232
202 233
174 234
99 235
136 236
185 237
129 238
7 239
230 240
172 241
113 242
207 243
38 244
24 245
69 246
245 247
52 248
81 249
223 250
219 251
180 252
189 253
45 254
195 255
240 256
194 257
211 258
245 259
110 260
30 261
235 262
12 263
182 264
249 265
177 266
183 267
177 268
31 269
73 270
248 271
52 272
263 273
176 274
183 275
230 276
69 277
181 278
80 279
115 280
112 281
91 282
87 283
158 284
61 285
19 286
71 287
29 288
261 289
280 290
229 291
118 292
201 293
51 294
38 295
21 296
206 297
62 298
85 299
125 300
113 301
53 302
115 303
70 304
251 305
30 306
109 307
63 308
149 309
188 310
193 311
99 312
5 313
253 314
54 315
48 316
218 317
201 318
189 319
82 320
164 321
30 322
165 323
224 324
37 325
274 326
172 327
249 328
325 329
267 330
289 331
9 332
12 333
315 334
115 335
73 336
179 337
40 338
186 339
151 340
102 341
310 342
89 343
235 344
17 345
93 346
63 347
60 348
71 349
96 350
233 351
265 352
279 353
98 354
329 355
267 356
294 357
31 358
1 359
20 360
6 361
315 362
337 363
180 364
346 365
50 366
170 367
291 368
357 369
330 370
232 371
357 372
257 373
150 374
282 375
185 376
188 377
325 378
45 379
274 380
105 381
99 382
105 383
101 384
127 385
202 386
165 387
174 388
365 389
142 390
181 391
343 392
161 393
175 394
223 395
284 396
271 397
6 398
15 399
210 400
315 401
229 402
111 403
343 404
192 405
34 406
223 407
400 408
375 409
256 410
309 411
87 412
127 413
259 414
75 415
351 416
139 417
323 418
9 419
363 420
69 421
272 422
419 423
168 424
163 425
250 426
249 427
162 428
385 429
138 430
283 431
313 432
328 433
283 434
339 435
205 436
303 437
191 438
261 439
390 440
403 441
426 442
438 443
109 444
55 445
182 446
19 447
335 448
327 449
392 450
175 451
51 452
236 453
44 454
273 455
360 456
405 457
127 458
451 459
407 460
262 461
49 462
112 463
245 464
105 465
404 466
5 467
108 468
29 469
247 470
205 471
156 472
79 473
259 474
159 475
267 476
201 477
234 478
383 479
116 480
159 481
60 482
166 483
8 484
437 485
28 486
115 487
98 488
244 489
487 490
55 491
294 492
94 493
140 494
440 495
69 496
367 497
107 498
157 499
401 500
19 501
394 502
330 503
383 504
89 505
411 506
137 507
363 508
425 509
343 510
60 511
260 512
414 513
381 514
209 515
469 516
385 517
46 518
319 519
153 520
325 521
349 522
41 523
475 524
421 525
217 526
53 527
511 528
470 529
481 530
131 531
342 532
158 533
339 534
491 535
295 536
425 537
188 538
303 539
65 540
230 541
30 542
383 543
274 544
518 545
289 546
515 547
525 548
170 549
164 550
219 551
406 552
335 553
198 554
131 555
472 556
1 557
98 558
129 559
208 560
445 561
112 562
325 563
140 564
357 565
550 566
306 567
46 568
121 569
533 570
205 571
126 572
221 573
467 574
130 575
221 576
131 577
110 578
143 579
6 580
122 581
483 582
65 583
557 584
537 585
235 586
210 587
527 588
423 589
489 590
481 591
165 592
481 593
116 594
325 595
307 596
382 597
85 598
230 599
122 600
506 601
74 602
491 603
49 604
587 605
586 606
323 607
117 608
390 609
151 610
597 611
26 612
523 613
184 614
173 615
503 616
527 617
424 618
617 619
490 620
609 621
489 622
87 623
618 624
516 625
66 626
326 627
561 628
282 629
449 630
253 631
445 632
357 633
459 634
193 635
95 636
106 637
548 638
395 639
323 640
299 641
292 642
442 643
454 644
361 645
18 646
121 647
465 648
569 649
104 650
647 651
538 652
139 653
316 654
193 655
323 656
537 657
8 658
622 659
9 660
339 661
620 662
368 663
310 664
274 665
239 666
137 667
304 668
119 669
296 670
397 671
264 672
377 673
300 674
275 675
213 676
173 677
562 678
591 679
182 680
209 681
187 682
483 683
125 684
491 685
75 686
529 687
401 688
85 689
354 690
227 691
430 692
129 693
659 694
459 695
116 696
148 697
481 698
183 699
227 700
407 701
529 702
153 703
380 704
113 705
419 706
78 707
65 708
677 709
634 710
507 711
599 712
217 713
501 714
643 715
672 716
581 717
619 718
145 719
207 720
82 721
219 722
69 723
181 724
571 725
502 726
555 727
450 728
91 729
145 730
701 731
571 732
23 733
59 734
337 735
475 736
209 737
644 738
425 739
253 740
225 741
593 742
318 743
681 744
712 745
40 746
95 747
9 748
234 749
57 750
579 751
163 752
703 753
541 754
299 755
314 756
401 757
668 758
403 759
534 760
76 761
96 762
693 763
240 764
272 765
432 766
5 767
597 768
133 769
159 770
619 771
416 772
646 773
107 774
474 775
52 776
745 777
560 778
247 779
295 780
287 781
467 782
353 783
86 784
42 785
14 786
527 787
198 788
323 789
240 790
718 791
710 792
307 793
313 794
489 795
756 796
183 797
377 798
11 799
580 800
623 801
205 802
423 803
625 804
599 805
287 806
75 807
704 808
495 809
580 810
75 811
330 812
38 813
440 814
149 815
511 816
372 817
644 818
135 819
79 820
545 821
263 822
647 823
135 824
563 825
688 826
92 827
784 828
317 829
25 830
203 831
453 832
83 833
216 834
538 835
821 836
394 837
681 838
23 839
698 840
172 841
576 842
610 843
776 844
676 845
110 846
603 847
461 848
501 849
120 850
550 851
567 852
426 853
436 854
23 855
587 856
661 857
309 858
151 859
465 860
389 861
379 862
410 863
713 864
426 865
566 866
763 867
453 868
547 869
222 870
17 871
683 872
337 873
844 874
761 875
149 876
222 877
184 878
545 879
236 880
635 881
389 882
688 883
294 884
847 885
698 886
783 887
90 888
253 889
363 890
615 891
534 892
607 893
576 894
30 895
99 896
830 897
820 898
795 899
387 900
833 901
287 902
667 903
841 904
569 905
17 906
849 907
90 908
733 909
307 910
589 911
22 912
446 913
902 914
235 915
580 916
321 917
350 918
653 919
381 920
772 921
334 922
797 923
544 924
589 925
341 926
919 927
922 928
168 929
236 930
205 931
489 932
597 933
298 934
226 935
866 936
334 937
416 938
433 939
788 940
101 941
346 942
693 943
792 944
777 945
778 946
273 947
485 948
825 949
622 950
873 951
529 952
91 953
839 954
643 955
750 956
805 957
791 958
235 959
940 960
459 961
61 962
925 963
135 964
915 965
835 966
661 967
426 968
380 969
576 970
22 971
64 972
161 973
398 974
468 975
103 976
833 977
143 978
419 979
69 980
261 981
64 982
519 983
440 984
898 985
695 986
191 987
12 988
774 989
432 990
478 991
567 992
909 993
10 994
106 995
161 996
721 997
776 998
57 999
159 1000
93 1001
967 1002
839 1003
527 1004
456 1005
158 1006
27 1007
957 1008
33 1009
721 1010
93 1011
844 1012
45 1013
548 1014
266 1015
136 1016
597 1017
1017 1018
587 1019
770 1020
573 1021
753 1022
973 1023
760 1024
863 1025
250 1026
27 1027
306 1028
19 1029
855 1030
427 1031
908 1032
97 1033
58 1034
527 1035
111 1036
631 1037
21 1038
831 1039
175 1040
47 1041
500 1042
834 1043
1002 1044
1002 1045
514 1046
497 1047
859 1048
814 1049
756 1050
837 1051
153 1052
653 1053
514 1054
39 1055
1000 1056
941 1057
448 1058
49 1059
801 1060
929 1061
72 1062
115 1063
385 1064
73 1065
595 1066
311 1067
818 1068
173 1069
949 1070
737 1071
779 1072
622 1073
1040 1074
456 1075
264 1076
409 1077
881 1078
871 1079
570 1080
575 1081
36 1082
71 1083
905 1084
888 1085
97 1086
1003 1087
699 1088
121 1089
229 1090
829 1091
138 1092
691 1093
283 1094
733 1095
822 1096
901 1097
50 1098
745 1099
70 1100
915 1101
399 1102
808 1103
922 1104
827 1105
1096 1106
713 1107
129 1108
657 1109
438 1110
421 1111
1056 1112
521 1113
400 1114
651 1115
484 1116
669 1117
661 1118
17 1119
80 1120
90 1121
137 1122
110 1123
350 1124
921 1125
1121 1126
155 1127
945 1128
479 1129
544 1130
356 1131
746 1132
465 1133
60 1134
759 1135
42 1136
907 1137
238 1138
35 1139
1002 1140
893 1141
342 1142
668 1143
613 1144
803 1145
232 1146
717 1147
401 1148
616 1149
828 1150
257 1151
176 1152
783 1153
422 1154
1066 1155
878 1156
581 1157
995 1158
341 1159
824 1160
845 1161
322 1162
414 1163
678 1164
448 1165
601 1166
219 1167
160 1168
1125 1169
836 1170
339 1171
609 1172
895 1173
73 1174
1137 1175
686 1176
1076 1177
158 1178
653 1179
62 1180
1023 1181
166 1182
203 1183
491 1184
769 1185
534 1186
667 1187
963 1188
821 1189
250 1190
787 1191
1000 1192
9 1193
148 1194
529 1195
1043 1196
981 1197
83 1198
1083 1199
552 1200
364 1201
657 1202
117 1203
366 1204
1153 1205
581 1206
877 1207
758 1208
87 1209
47 1210
11 1211
556 1212
1 1213
992 1214
173 1215
482 1216
240 1217
586 1218
1067 1219
881 1220
1103 1221
544 1222
767 1223
989 1224
951 1225
1215 1226
111 1227
563 1228
969 1229
364 1230
1185 1231
374 1232
337 1233
530 1234
319 1235
23 1236
1225 1237
149 1238
1129 1239
1188 1240
710 1241
74 1242
243 1243
1065 1244
543 1245
270 1246
764 1247
837 1248
689 1249
490 1250
1053 1251
1107 1252
433 1253
128 1254
622 1255
1142 1256
641 1257
1036 1258
93 1259
684 1260
945 1261
622 1262
639 1263
7 1264
365 1265
1 1266
846 1267
836 1268
3 1269
578 1270
207 1271
486 1272
702 1273
722 1274
293 1275
101 1276
823 1277
346 1278
1106 1279
977 1280
597 1281
532 1282
1113 1283
1182 1284
809 1285
1249 1286
965 1287
1001 1288
875 1289
496 1290
159 1291
1065 1292
1037 1293
459 1294
1061 1295
1 1296
619 1297
1069 1298
885 1299
665 1300
203 1301
277 1302
956 1303
1203 1304
1074 1305
719 1306
663 1307
192 1308
1189 1309
465 1310
1257 1311
869 1312
44 1313
848 1314
584 1315
1071 1316
289 1317
239 1318
417 1319
956 1320
476 1321
255 1322
1312 1323
343 1324
313 1325
1255 1326
23 1327
741 1328
1173 1329
529 1330
633 1331
1036 1332
505 1333
1165 1334
1123 1335
496 1336
1213 1337
325 1338
1175 1339
829 1340
336 1341
27 1342
1119 1343
38 1344
1305 1345
992 1346
201 1347
454 1348
2 1349
748 1350
855 1351
1247 1352
180 1353
860 1354
241 1355
1077 1356
1174 1357
603 1358
935 1359
1112 1360
1120 1361
1218 1362
1179 1363
657 1364
628 1365
989 1366
947 1367
530 1368
1055 1369
816 1370
1335 1371
677 1372
1228 1373
623 1374
199 1375
366 1376
1333 1377
16 1378
1369 1379
328 1380
1162 1381
751 1382
894 1383
221 1384
967 1385
1369 1386
1071 1387
18 1388
1245 1389
1026 1390
905 1391
350 1392
1313 1393
973 1394
889 1395
872 1396
781 1397
1323 1398
1323 1399
884 1400
1141 1401
884 1402
1033 1403
1081 1404
1371 1405
493 1406
127 1407
263 1408
309 1409
1391 1410
937 1411
160 1412
757 1413
1114 1414
637 1415
1158 1416
1265 1417
504 1418
821 1419
585 1420
1165 1421
389 1422
367 1423
775 1424
65 1425
1247 1426
203 1427
401 1428
1091 1429
9 1430
1190 1431
488 1432
1396 1433
194 1434
133 1435
681 1436
265 1437
307 1438
786 1439
975 1440
885 1441
145 1442
173 1443
189 1444
259 1445
908 1446
1381 1447
43 1448
617 1449
206 1450
354 1451
1196 1452
1045 1453
513 1454
1365 1455
1099 1456
793 1457
755 1458
666 1459
1359 1460
81 1461
1005 1462
692 1463
1454 1464
1160 1465
184 1466
465 1467
1165 1468
712 1469
1176 1470
926 1471
798 1472
1269 1473
576 1474
640 1475
675 1476
568 1477
1134 1478
1149 1479
342 1480
259 1481
601 1482
997 1483
603 1484
1392 1485
1099 1486
1445 1487
394 1488
697 1489
1079 1490
1268 1491
1095 1492
853 1493
39 1494
1036 1495
714 1496
953 1497
1123 1498
995 1499
917 1500
1113 1501
1070 1502
862 1503
1251 1504
790 1505
408 1506
553 1507
1375 1508
465 1509
962 1510
1218 1511
234 1512
1130 1513
1113 1514
341 1515
168 1516
173 1517
60 1518
693 1519
116 1520
870 1521
1096 1522
1263 1523
658 1524
162 1525
1321 1526
425 1527
247 1528
1145 1529
1328 1530
720 1531
1250 1532
783 1533
1434 1534
1083 1535
67 1536
904 1537
4 1538
345 1539
413 1540
181 1541
876 1542
605 1543
410 1544
463 1545
805 1546
1216 1547
1018 1548
445 1549
635 1550
1467 1551
758 1552
889 1553
1000 1554
493 1555
1142 1556
1316 1557
359 1558
1273 1559
1048 1560
544 1561
301 1562
1473 1563
907 1564
893 1565
889 1566
1155 1567
411 1568
757 1569
639 1570
1439 1571
424 1572
1300 1573
1067 1574
881 1575
1535 1576
385 1577
1160 1578
806 1579
188 1580
1464 1581
1202 1582
1335 1583
493 1584
1009 1585
1109 1586
195 1587
531 1588
837 1589
293 1590
741 1591
1126 1592
1061 1593
310 1594
1249 1595
1199 1596
1017 1597
271 1598
29 1599
51 1600
417 1601
1355 1602
935 1603
614 1604
1415 1605
71 1606
1479 1607
229 1608
327 1609
1282 1610
168 1611
1356 1612
654 1613
709 1614
1335 1615
998 1616
172 1617
1505 1618
633 1619
360 1620
849 1621
657 1622
1096 1623
1347 1624
385 1625
1488 1626
619 1627
1330 1628
1009 1629
211 1630
745 1631
1385 1632
345 1633
496 1634
162 1635
1625 1636
583 1637
1548 1638
821 1639
1172 1640
1537 1641
714 1642
15 1643
1082 1644
200 1645
277 1646
1163 1647
1039 1648
793 1649
727 1650
413 1651
1087 1652
177 1653
874 1654
35 1655
475 1656
609 1657
1117 1658
287 1659
1553 1660
89 1661
25 1662
814 1663
1358 1664
897 1665
1630 1666
1271 1667
929 1668
306 1669
327 1670
469 1671
1612 1672
121 1673
1277 1674
514 1675
525 1676
1143 1677
1297 1678
613 1679
395 1680
723 1681
1019 1682
1615 1683
1236 1684
461 1685
670 1686
1644 1687
1358 1688
1489 1689
1594 1690
1261 1691
1381 1692
582 1693
1531 1694
241 1695
748 1696
895 1697
754 1698
1284 1699
586 1700
1423 1701
48 1702
742 1703
301 1704
1498 1705
363 1706
1041 1707
828 1708
605 1709
1046 1710
1265 1711
1342 1712
923 1713
604 1714
107 1715
445 1716
51 1717
80 1718
911 1719
614 1720
842 1721
919 1722
1683 1723
402 1724
1530 1725
1568 1726
1087 1727
75 1728
97 1729
442 1730
1607 1731
714 1732
1645 1733
1075 1734
211 1735
1531 1736
109 1737
1075 1738
475 1739
269 1740
633 1741
702 1742
921 1743
915 1744
1611 1745
11 1746
672 1747
108 1748
516 1749
908 1750
1689 1751
1553 1752
1732 1753
1571 1754
1409 1755
1640 1756
1119 1757
1056 1758
662 1759
516 1760
963 1761
1424 1762
640 1763
1341 1764
433 1765
532 1766
881 1767
168 1768
856 1769
339 1770
1498 1771
147 1772
34 1773
1031 1774
89 1775
305 1776
1665 1777
675 1778
1213 1779
788 1780
1081 1781
828 1782
1262 1783
1616 1784
65 1785
1343 1786
85 1787
1402 1788
1477 1789
437 1790
161 1791
1512 1792
117 1793
1116 1794
535 1795
229 1796
166 1797
500 1798
1515 1799
595 1800
1659 1801
578 1802
897 1803
1243 1804
387 1805
9 1806
1452 1807
1408 1808
281 1809
475 1810
557 1811
694 1812
83 1813
645 1814
370 1815
799 1816
873 1817
563 1818
1080 1819
262 1820
929 1821
1353 1822
1492 1823
256 1824
1057 1825
762 1826
487 1827
333 1828
1047 1829
716 1830
370 1831
338 1832
19 1833
1473 1834
423 1835
1070 1836
1141 1837
1399 1838
836 1839
1480 1840
1651 1841
1699 1842
279 1843
903 1844
297 1845
1625 1846
1425 1847
29 1848
1222 1849
852 1850
781 1851
12 1852
900 1853
1112 1854
837 1855
1193 1856
1563 1857
1819 1858
585 1859
290 1860
1403 1861
1746 1862
1078 1863
271 1864
1173 1865
454 1866
495 1867
836 1868
1617 1869
1259 1870
169 1871
799 1872
1297 1873
70 1874
1731 1875
893 1876
965 1877
613 1878
451 1879
1149 1880
801 1881
623 1882
61 1883
523 1884
383 1885
1186 1886
34 1887
1853 1888
283 1889
744 1890
675 1891
1877 1892
1213 1893
95 1894
733 1895
1217 1896
1861 1897
160 1898
1367 1899
629 1900
1014 1901
262 1902
1401 1903
1477 1904
309 1905
1480 1906
1297 1907
1712 1908
767 1909
1725 1910
1728 1911
1825 1912
154 1913
1842 1914
66 1915
742 1916
337 1917
1024 1918
1269 1919
1153 1920
1681 1921
1819 1922
1190 1923
1445 1924
1863 1925
603 1926
1569 1927
633 1928
1733 1929
330 1930
1712 1931
734 1932
43 1933
83 1934
1031 1935
1433 1936
893 1937
802 1938
785 1939
223 1940
367 1941
463 1942
1477 1943
1295 1944
1745 1945
406 1946
555 1947
1657 1948
1153 1949
1080 1950
773 1951
1440 1952
513 1953
892 1954
1815 1955
976 1956
1619 1957
1200 1958
1609 1959
1818 1960
1342 1961
1433 1962
825 1963
782 1964
141 1965
1354 1966
251 1967
1832 1968
901 1969
626 1970
1143 1971
1929 1972
1557 1973
1816 1974
405 1975
1266 1976
1648 1977
1083 1978
1003 1979
153 1980
1633 1981
718 1982
501 1983
217 1984
317 1985
107 1986
351 1987
585 1988
37 1989
1850 1990
1975 1991
553 1992
1117 1993
1260 1994
33 1995
264 1996
1744 1997
1397 1998
1115 1999
1295 2000
1560 2001
576 2002
1827 2003
610 2004
373 2005
174 2006
1907 2007
1992 2008
1129 2009
1594 2010
329 2011
1695 2012
1473 2013
1953 2014
553 2015
1141 2016
645 2017
249 2018
262 2019
1011 2020
1965 2021
256 2022
506 2023
1805 2024
1276 2025
1242 2026
1314 2027
1376 2028
781 2029
1735 2030
515 2031
1662 2032
1316 2033
228 2034
1599 2035
2013 2036
457 2037
2024 2038
1687 2039
758 2040
1712 2041
603 2042
979 2043
697 2044
1195 2045
558 2046
307 2047
13 2048
1657 2049
1248 2050
23 2051
1545 2052
868 2053
190 2054
273 2055
1226 2056
1878 2057
1128 2058
786 2059
2030 2060
365 2061
1834 2062
57 2063
1062 2064
333 2065
599 2066
627 2067
1132 2068
1076 2069
1144 2070
607 2071
699 2072
582 2073
2034 2074
1539 2075
1905 2076
732 2077
2061 2078
1560 2079
1275 2080
1101 2081
1356 2082
873 2083
747 2084
186 2085
1103 2086
709 2087
1629 2088
1481 2089
1116 2090
1859 2091
792 2092
1177 2093
343 2094
1673 2095
1986 2096
880 2097
2014 2098
1715 2099
1518 2100
2077 2101
521 2102
1563 2103
878 2104
1337 2105
21 2106
1335 2107
883 2108
700 2109
1892 2110
1696 2111
869 2112
1051 2113
2039 2114
761 2115
833 2116
2045 2117
962 2118
1703 2119
1500 2120
928 2121
126 2122
1512 2123
250 2124
1445 2125
1305 2126
1401 2127
1051 2128
925 2129
866 2130
52 2131
1461 2132
1765 2133
1985 2134
66 2135
127 2136
505 2137
149 2138
107 2139
1416 2140
605 2141
1064 2142
1283 2143
1422 2144
549 2145
667 2146
1519 2147
262 2148
1993 2149
343 2150
1093 2151
1537 2152
1952 2153
1423 2154
1573 2155
2060 2156
1164 2157
1184 2158
1994 2159
920 2160
1137 2161
276 2162
813 2163
2087 2164
1425 2165
482 2166
1113 2167
829 2168
1286 2169
1186 2170
1665 2171
917 2172
606 2173
1892 2174
2081 2175
1839 2176
1265 2177
585 2178
1337 2179
615 2180
1793 2181
779 2182
923 2183
575 2184
2101 2185
364 2186
1687 2187
154 2188
1857 2189
1634 2190
1397 2191
1378 2192
1182 2193
1356 2194
1099 2195
687 2196
1105 2197
703 2198
1693 2199
840 2200
89 2201
1221 2202
2000 2203
2022 2204
2198 2205
339 2206
1024 2207
1507 2208
1225 2209
1804 2210
58 2211
1599 2212
1769 2213
402 2214
1733 2215
1202 2216
1138 2217
900 2218
407 2219
1547 2220
857 2221
1410 2222
540 2223
62 2224
305 2225
2109 2226
18 2227
633 2228
1361 2229
797 2230
1892 2231
1565 2232
940 2233
212 2234
1098 2235
1454 2236
1163 2237
1860 2238
2013 2239
1155 2240
1965 2241
1900 2242
1527 2243
1580 2244
1021 2245
916 2246
1345 2247
109 2248
174 2249
800 2250
1383 2251
1879 2252
2061 2253
1174 2254
925 2255
197 2256
2223 2257
913 2258
115 2259
1823 2260
1701 2261
1575 2262
1449 2263
1002 2264
1086 2265
1908 2266
1085 2267
2026 2268
433 2269
795 2270
451 2271
1306 2272
1641 2273
1748 2274
1981 2275
1628 2276
1206 2277
1836 2278
1595 2279
1761 2280
943 2281
289 2282
1085 2283
510 2284
2229 2285
1369 2286
929 2287
701 2288
1121 2289
285 2290
205 2291
1406 2292
1725 2293
698 2294
2113 2295
1516 2296
809 2297
371 2298
1573 2299
753 2300
213 2301
1249 2302
964 2303
628 2304
2007 2305
916 2306
31 2307
348 2308
1883 2309
128 2310
2145 2311
1028 2312
107 2313
1441 2314
245 2315
1615 2316
114 2317
544 2318
1940 2319
2254 2320
449 2321
233 2322
1533 2323
1274 2324
1761 2325
1388 2326
419 2327
1320 2328
17 2329
1925 2330
451 2331
322 2332
749 2333
565 2334
827 2335
192 2336
917 2337
1788 2338
2055 2339
2008 2340
2060 2341
1696 2342
295 2343
1733 2344
1056 2345
2204 2346
849 2347
1866 2348
1571 2349
1769 2350
815 2351
1129 2352
1127 2353
1711 2354
1950 2355
832 2356
1121 2357
1678 2358
439 2359
1423 2360
1081 2361
1173 2362
2009 2363
143 2364
1411 2365
754 2366
918 2367
1214 2368
1971 2369
203 2370
1985 2371
1547 2372
2369 2373
817 2374
129 2375
567 2376
1637 2377
916 2378
2178 2379
1489 2380
9 2381
2091 2382
2185 2383
894 2384
259 2385
413 2386
543 2387
2090 2388
287 2389
1200 2390
2231 2391
200 2392
765 2393
849 2394
1195 2395
382 2396
1821 2397
1089 2398
1923 2399
2057 2400
2197 2401
2159 2402
2025 2403
256 2404
2234 2405
1983 2406
1733 2407
906 2408
1025 2409
248 2410
2353 2411
2270 2412
1960 2413
2188 2414
63 2415
1749 2416
649 2417
2252 2418
411 2419
2251 2420
316 2421
763 2422
1407 2423
434 2424
2105 2425
1848 2426
514 2427
447 2428
1570 2429
164 2430
232 2431
1930 2432
1411 2433
367 2434
437 2435
413 2436
1953 2437
680 2438
1981 2439
1703 2440
996 2441
1182 2442
1747 2443
1658 2444
389 2445
1881 2446
509 2447
295 2448
85 2449
1466 2450
540 2451
1319 2452
2269 2453
2266 2454
1448 2455
456 2456
1845 2457
1051 2458
1605 2459
842 2460
1957 2461
1119 2462
2148 2463
1560 2464
1310 2465
228 2466
1827 2467
2143 2468
256 2469
346 2470
2348 2471
244 2472
2137 2473
1379 2474
2283 2475
1743 2476
309 2477
800 2478
662 2479
2038 2480
305 2481
1535 2482
1295 2483
492 2484
851 2485
315 2486
379 2487
958 2488
413 2489
1226 2490
1414 2491
1267 2492
844 2493
7 2494
1183 2495
1892 2496
396 2497
912 2498
2438 2499
264 2500
623 2501
1034 2502
933 2503
2144 2504
781 2505
1182 2506
329 2507
1576 2508
1145 2509
1925 2510
1303 2511
329 2512
777 2513
2015 2514
428 2515
1858 2516
1837 2517
682 2518
482 2519
382 2520
1205 2521
539 2522
943 2523
1514 2524
2417 2525
457 2526
1325 2527
1077 2528
361 2529
156 2530
195 2531
1243 2532
2181 2533
1989 2534
1610 2535
2386 2536
2334 2537
2324 2538
1371 2539
1254 2540
1088 2541
976 2542
948 2543
1438 2544
1553 2545
1726 2546
1914 2547
1418 2548
1639 2549
2312 2550
2010 2551
441 2552
1791 2553
1297 2554
2085 2555
233 2556
134 2557
1760 2558
65 2559
950 2560
129 2561
12 2562
439 2563
146 2564
1894 2565
133 2566
123 2567
1513 2568
64 2569
2269 2570
1865 2571
382 2572
133 2573
1700 2574
2379 2575
2297 2576
2131 2577
1224 2578
1903 2579
40 2580
56 2581
565 2582
2545 2583
214 2584
1457 2585
1518 2586
1779 2587
183 2588
2447 2589
1258 2590
887 2591
1433 2592
1538 2593
148 2594
2229 2595
2490 2596
310 2597
1447 2598
2271 2599
1479 2600
1234 2601
2285 2602
177 2603
670 2604
1372 2605
2107 2606
1596 2607
2000 2608
1851 2609
1340 2610
292 2611
1155 2612
2066 2613
1005 2614
1155 2615
2117 2616
1091 2617
649 2618
309 2619
1556 2620
9 2621
162 2622
1915 2623
1878 2624
520 2625
2576 2626
35 2627
2251 2628
1641 2629
1122 2630
2403 2631
1470 2632
841 2633
511 2634
1245 2635
2225 2636
1013 2637
656 2638
189 2639
2251 2640
1115 2641
1036 2642
1642 2643
803 2644
1105 2645
1290 2646
993 2647
770 2648
1137 2649
1102 2650
2466 2651
2141 2652
519 2653
262 2654
675 2655
244 2656
853 2657
1616 2658
1435 2659
1598 2660
600 2661
1511 2662
441 2663
1501 2664
903 2665
1410 2666
359 2667
1551 2668
1132 2669
2294 2670
2310 2671
485 2672
755 2673
130 2674
1821 2675
564 2676
513 2677
189 2678
2359 2679
789 2680
2146 2681
768 2682
2377 2683
1354 2684
2100 2685
1400 2686
2197 2687
2536 2688
1449 2689
2265 2690
1894 2691
1327 2692
1933 2693
92 2694
1885 2695
1455 2696
828 2697
678 2698
1480 2699
2179 2700
1313 2701
122 2702
1645 2703
187 2704
1697 2705
1383 2706
615 2707
2071 2708
1013 2709
2188 2710
2199 2711
2043 2712
1546 2713
2059 2714
1007 2715
2133 2716
1711 2717
2129 2718
2452 2719
1790 2720
362 2721
2589 2722
889 2723
923 2724
1041 2725
2327 2726
2150 2727
656 2728
1921 2729
1645 2730
1979 2731
1516 2732
2305 2733
2030 2734
982 2735
2017 2736
1292 2737
2060 2738
981 2739
1166 2740
1535 2741
2306 2742
1279 2743
2195 2744
301 2745
1162 2746
15 2747
1190 2748
156 2749
604 2750
487 2751
1224 2752
614 2753
889 2754
961 2755
1387 2756
2103 2757
381 2758
820 2759
235 2760
2393 2761
2228 2762
1533 2763
89 2764
377 2765
41 2766
2137 2767
450 2768
1477 2769
745 2770
1719 2771
892 2772
57 2773
1221 2774
1190 2775
2597 2776
2277 2777
1370 2778
2509 2779
1370 2780
957 2781
2357 2782
55 2783
519 2784
2647 2785
2671 2786
1627 2787
2136 2788
1975 2789
752 2790
2358 2791
2674 2792
811 2793
2691 2794
2065 2795
1570 2796
1791 2797
1086 2798
1949 2799
2469 2800
460 2801
1336 2802
1591 2803
43 2804
2757 2805
505 2806
1795 2807
1768 2808
945 2809
1703 2810
2512 2811
2651 2812
2393 2813
2628 2814
2234 2815
2380 2816
1977 2817
54 2818
234 2819
1004 2820
1473 2821
2124 2822
1636 2823
36 2824
429 2825
1975 2826
2714 2827
1766 2828
2737 2829
1218 2830
287 2831
1704 2832
641 2833
1847 2834
803 2835
761 2836
1549 2837
1075 2838
1911 2839
2484 2840
2412 2841
369 2842
435 2843
1182 2844
2494 2845
554 2846
1022 2847
868 2848
296 2849
1200 2850
553 2851
2779 2852
2004 2853
430 2854
759 2855
2367 2856
2032 2857
1354 2858
115 2859
2348 2860
2701 2861
1114 2862
55 2863
1227 2864
1874 2865
986 2866
1064 2867
1055 2868
1172 2869
1829 2870
1300 2871
1904 2872
961 2873
2430 2874
894 2875
71 2876
895 2877
1790 2878
753 2879
175 2880
661 2881
152 2882
2059 2883
1150 2884
2215 2885
2468 2886
1297 2887
2588 2888
2401 2889
705 2890
1917 2891
800 2892
2519 2893
1273 2894
741 2895
168 2896
2197 2897
37 2898
1174 2899
426 2900
1597 2901
629 2902
165 2903
1052 2904
2278 2905
66 2906
1275 2907
1605 2908
2509 2909
2196 2910
959 2911
2027 2912
2045 2913
1292 2914
1468 2915
1011 2916
978 2917
2627 2918
2842 2919
465 2920
1877 2921
2133 2922
2475 2923
1986 2924
886 2925
2603 2926
280 2927
182 2928
1877 2929
1317 2930
279 2931
1142 2932
2629 2933
639 2934
2855 2935
566 2936
2064 2937
877 2938
879 2939
1411 2940
565 2941
1484 2942
2041 2943
1455 2944
2768 2945
2784 2946
18 2947
1223 2948
103 2949
17 2950
2330 2951
536 2952
2873 2953
1889 2954
1798 2955
2260 2956
133 2957
2475 2958
2315 2959
4 2960
441 2961
2214 2962
1125 2963
1201 2964
1099 2965
1580 2966
695 2967
2792 2968
1021 2969
1348 2970
2799 2971
367 2972
1657 2973
2932 2974
880 2975
993 2976
741 2977
1655 2978
2648 2979
1491 2980
2951 2981
646 2982
163 2983
865 2984
1850 2985
1017 2986
1532 2987
2587 2988
1818 2989
1129 2990
1061 2991
1361 2992
1830 2993
320 2994
1477 2995
1656 2996
1877 2997
154 2998
2601 2999
1686 3000
2897 3001
1221 3002
1545 3003
1474 3004
2725 3005
1340 3006
2739 3007
2484 3008
1921 3009
827 3010
479 3011
1797 3012
1741 3013
1846 3014
1781 3015
766 3016
2543 3017
1002 3018
751 3019
2500 3020
237 3021
1671 3022
2987 3023
1374 3024
50 3025
1807 3026
2612 3027
2580 3028
1157 3029
1445 3030
2840 3031
2131 3032
795 3033
2765 3034
705 3035
647 3036
1855 3037
249 3038
2215 3039
753 3040
1809 3041
1437 3042
2932 3043
2280 3044
449 3045
2021 3046
730 3047
2295 3048
794 3049
710 3050
2617 3051
1658 3052
1049 3053
2210 3054
457 3055
32 3056
2024 3057
2368 3058
1317 3059
2377 3060
2513 3061
3061 3062
1260 3063
2972 3064
367 3065
1688 3066
554 3067
1280 3068
2621 3069
1534 3070
2644 3071
455 3072
2077 3073
2021 3074
2919 3075
2778 3076
59 3077
293 3078
1906 3079
403 3080
1245 3081
2435 3082
121 3083
2414 3084
2530 3085
931 3086
461 3087
2500 3088
2705 3089
2323 3090
2201 3091
1865 3092
2117 3093
607 3094
1981 3095
682 3096
1560 3097
1149 3098
399 3099
3052 3100
87 3101
1132 3102
2918 3103
745 3104
1281 3105
2671 3106
913 3107
1790 3108
3032 3109
1233 3110
469 3111
304 3112
331 3113
997 3114
2613 3115
875 3116
536 3117
2316 3118
155 3119
1640 3120
1844 3121
1179 3122
2390 3123
2640 3124
31 3125
2860 3126
818 3127
1770 3128
121 3129
681 3130
1353 3131
1343 3132
1845 3133
1317 3134
2231 3135
781 3136
1515 3137
2184 3138
115 3139
1071 3140
2396 3141
1084 3142
942 3143
1499 3144
454 3145
2317 3146
1534 3147
887 3148
1613 3149
2439 3150
1557 3151
262 3152
577 3153
2180 3154
2443 3155
1972 3156
3022 3157
1618 3158
1275 3159
173 3160
2539 3161
2875 3162
1885 3163
2717 3164
2047 3165
2978 3166
2199 3167
3118 3168
2683 3169
753 3170
2265 3171
2099 3172
659 3173
2997 3174
2922 3175
1978 3176
747 3177
2960 3178
780 3179
636 3180
1264 3181
2721 3182
1331 3183
2311 3184
1353 3185
2892 3186
1740 3187
2665 3188
1301 3189
648 3190
1697 3191
3076 3192
2929 3193
2459 3194
1047 3195
226 3196
2086 3197
546 3198
3172 3199
175 3200
317 3201
1013 3202
333 3203
462 3204
471 3205
2668 3206
1649 3207
2572 3208
3197 3209
1787 3210
2139 3211
889 3212
1661 3213
2295 3214
2786 3215
2313 3216
3058 3217
1390 3218
852 3219
274 3220
259 3221
3185 3222
80 3223
2230 3224
201 3225
1358 3226
561 3227
1024 3228
2721 3229
1766 3230
3029 3231
1106 3232
2663 3233
2994 3234
2977 3235
970 3236
501 3237
2416 3238
41 3239
1832 3240
2217 3241
2927 3242
910 3243
434 3244
93 3245
1022 3246
2977 3247
1166 3248
2051 3249
393 3250
1483 3251
992 3252
3189 3253
2173 3254
1116 3255
746 3256
2879 3257
967 3258
1307 3259
1508 3260
1533 3261
68 3262
2804 3263
2438 3264
566 3265
554 3266
1835 3267
1226 3268
2576 3269
1374 3270
2873 3271
1850 3272
1593 3273
2446 3274
3093 3275
2833 3276
1753 3277
2382 3278
719 3279
1523 3280
2407 3281
2749 3282
219 3283
2409 3284
705 3285
1062 3286
2611 3287
1703 3288
1489 3289
1373 3290
315 3291
2217 3292
660 3293
544 3294
2651 3295
1157 3296
3293 3297
2042 3298
676 3299
1640 3300
1465 3301
2683 3302
3114 3303
1481 3304
1009 3305
3283 3306
2883 3307
725 3308
2173 3309
3015 3310
2857 3311
3082 3312
1677 3313
1422 3314
750 3315
1167 3316
3213 3317
2531 3318
973 3319
1947 3320
2285 3321
1583 3322
1947 3323
3316 3324
694 3325
1934 3326
311 3327
1555 3328
641 3329
2306 3330
2009 3331
1408 3332
38 3333
316 3334
189 3335
2280 3336
211 3337
484 3338
169 3339
2256 3340
3212 3341
1097 3342
1863 3343
190 3344
2249 3345
2946 3346
1647 3347
1725 3348
161 3349
1515 3350
2644 3351
208 3352
1691 3353
2842 3354
2745 3355
55 3356
2247 3357
725 3358
3181 3359
3193 3360
2395 3361
909 3362
65 3363
3353 3364
1811 3365
2095 3366
1811 3367
390 3368
2481 3369
1954 3370
2371 3371
848 3372
1651 3373
1113 3374
661 3375
2832 3376
1811 3377
3253 3378
2999 3379
101 3380
449 3381
802 3382
1603 3383
3052 3384
1713 3385
1616 3386
2925 3387
1145 3388
286 3389
700 3390
2857 3391
3353 3392
2791 3393
396 3394
1946 3395
3178 3396
2930 3397
503 3398
175 3399
2390 3400
469 3401
1613 3402
1007 3403
1178 3404
145 3405
2194 3406
2924 3407
1159 3408
1249 3409
3007 3410
2800 3411
920 3412
3206 3413
1595 3414
3051 3415
2766 3416
2893 3417
175 3418
1789 3419
888 3420
1009 3421
1403 3422
456 3423
1876 3424
1969 3425
3024 3426
1374 3427
2493 3428
3121 3429
1084 3430
2385 3431
1128 3432
1273 3433
3397 3434
1483 3435
1978 3436
39 3437
1592 3438
384 3439
287 3440
3385 3441
3213 3442
2697 3443
276 3444
689 3445
3088 3446
1537 3447
3408 3448
1489 3449
2166 3450
1380 3451
1489 3452
1466 3453
3095 3454
2176 3455
2266 3456
1013 3457
575 3458
1767 3459
478 3460
3441 3461
1874 3462
2097 3463
1791 3464
464 3465
2419 3466
2898 3467
1840 3468
1533 3469
3383 3470
2465 3471
1936 3472
847 3473
1708 3474
2765 3475
1654 3476
965 3477
3452 3478
3103 3479
1436 3480
547 3481
351 3482
2987 3483
1275 3484
2549 3485
1048 3486
603 3487
1193 3488
1123 3489
183 3490
243 3491
1946 3492
1867 3493
2432 3494
725 3495
722 3496
2180 3497
2591 3498
1100 3499
2624 3500
1780 3501
3165 3502
499 3503
206 3504
2429 3505
1218 3506
2416 3507
2334 3508
1859 3509
727 3510
863 3511
3305 3512
2001 3513
141 3514
2741 3515
1106 3516
1058 3517
307 3518
763 3519
2997 3520
897 3521
2815 3522
239 3523
1971 3524
1349 3525
962 3526
2942 3527
3168 3528
1888 3529
1104 3530
2747 3531
101 3532
315 3533
1614 3534
2783 3535
3364 3536
3078 3537
1422 3538
47 3539
1381 3540
2210 3541
2290 3542
1611 3543
3362 3544
1903 3545
136 3546
859 3547
1393 3548
94 3549
3482 3550
27 3551
1975 3552
2199 3553
2341 3554
629 3555
2565 3556
925 3557
2460 3558
1648 3559
1733 3560
561 3561
2150 3562
3161 3563
1606 3564
1384 3565
2936 3566
3253 3567
849 3568
2411 3569
1684 3570
2231 3571
1539 3572
1525 3573
628 3574
2256 3575
101 3576
2145 3577
2297 3578
837 3579
2225 3580
2773 3581
2341 3582
3563 3583
867 3584
905 3585
1179 3586
932 3587
304 3588
2341 3589
174 3590
83 3591
2133 3592
3063 3593
545 3594
957 3595
3171 3596
2781 3597
1578 3598
2348 3599
1645 3600
3559 3601
2496 3602
675 3603
709 3604
1847 3605
597 3606
2223 3607
2223 3608
2047 3609
2468 3610
1309 3611
1669 3612
2889 3613
1974 3614
919 3615
45 3616
2825 3617
2272 3618
919 3619
184 3620
3574 3621
652 3622
2913 3623
498 3624
439 3625
1970 3626
2977 3627
1824 3628
3237 3629
644 3630
2364 3631
1487 3632
1999 3633
702 3634
2714 3635
1939 3636
725 3637
280 3638
2367 3639
2172 3640
152 3641
3157 3642
2241 3643
1729 3644
831 3645
1922 3646
1856 3647
3299 3648
1633 3649
3406 3650
2327 3651
1139 3652
2713 3653
3362 3654
73 3655
2130 3656
2570 3657
2813 3658
2455 3659
3217 3660
2318 3661
3476 3662
3015 3663
690 3664
2593 3665
1481 3666
2597 3667
1627 3668
1133 3669
2940 3670
2799 3671
1481 3672
2965 3673
2444 3674
2601 3675
2620 3676
663 3677
1599 3678
3065 3679
2950 3680
789 3681
1511 3682
2565 3683
2940 3684
3353 3685
2866 3686
2014 3687
1774 3688
3289 3689
845 3690
929 3691
652 3692
1574 3693
1095 3694
2873 3695
3119 3696
1671 3697
3360 3698
1607 3699
2483 3700
3167 3701
307 3702
3229 3703
1589 3704
1993 3705
96 3706
1807 3707
2879 3708
958 3709
1988 3710
3328 3711
1853 3712
2537 3713
1051 3714
386 3715
2881 3716
2153 3717
2233 3718
2407 3719
1124 3720
1369 3721
1877 3722
719 3723
3384 3724
741 3725
770 3726
3290 3727
1849 3728
3265 3729
611 3730
388 3731
630 3732
1437 3733
3330 3734
2911 3735
1080 3736
400 3737
513 3738
3717 3739
33 3740
2431 3741
3308 3742
153 3743
3638 3744
439 3745
2987 3746
2505 3747
306 3748
1753 3749
498 3750
2119 3751
3291 3752
2848 3753
789 3754
1025 3755
397 3756
3121 3757
2976 3758
2551 3759
1136 3760
1857 3761
639 3762
1893 3763
1664 3764
1917 3765
1806 3766
3599 3767
3198 3768
3674 3769
3111 3770
2039 3771
2840 3772
1835 3773
462 3774
1299 3775
2306 3776
131 3777
2256 3778
2257 3779
464 3780
3027 3781
1249 3782
1863 3783
1778 3784
2956 3785
2656 3786
2471 3787
2965 3788
393 3789
3383 3790
1491 3791
970 3792
3165 3793
2751 3794
3583 3795
2837 3796
1637 3797
689 3798
1283 3799
846 3800
1450 3801
3790 3802
2573 3803
1492 3804
1665 3805
1146 3806
1747 3807
1367 3808
3155 3809
1873 3810
1830 3811
1642 3812
1987 3813
2717 3814
2633 3815
1212 3816
3085 3817
2500 3818
3189 3819
119 3820
59 3821
2819 3822
1763 3823
2634 3824
1412 3825
2945 3826
842 3827
456 3828
1853 3829
2621 3830
2286 3831
3552 3832
3522 3833
3791 3834
3267 3835
2957 3836
397 3837
2214 3838
3242 3839
2005 3840
2179 3841
2497 3842
1147 3843
1846 3844
985 3845
835 3846
2485 3847
1136 3848
283 3849
1873 3850
3295 3851
3732 3852
653 3853
3037 3854
273 3855
656 3856
439 3857
2301 3858
3791 3859
442 3860
2129 3861
3303 3862
363 3863
1121 3864
3545 3865
1766 3866
879 3867
3021 3868
109 3869
1144 3870
1555 3871
2406 3872
2839 3873
2317 3874
2128 3875
2567 3876
1741 3877
2181 3878
3081 3879
368 3880
625 3881
1753 3882
2781 3883
3146 3884
1169 3885
3334 3886
1264 3887
3282 3888
1963 3889
2389 3890
3047 3891
3178 3892
1049 3893
3692 3894
1379 3895
3200 3896
2349 3897
625 3898
1841 3899
875 3900
605 3901
1969 3902
1483 3903
2536 3904
60 3905
2293 3906
917 3907
3204 3908
1921 3909
2252 3910
785 3911
2326 3912
3679 3913
3451 3914
2010 3915
191 3916
44 3917
852 3918
3251 3919
723 3920
1658 3921
3133 3922
1547 3923
3667 3924
289 3925
1566 3926
2413 3927
3358 3928
1705 3929
359 3930
133 3931
1755 3932
997 3933
1659 3934
3611 3935
1898 3936
2323 3937
2886 3938
3145 3939
1392 3940
585 3941
106 3942
1796 3943
2290 3944
230 3945
371 3946
2605 3947
3412 3948
1335 3949
3444 3950
2990 3951
2017 3952
2905 3953
2749 3954
3691 3955
767 3956
484 3957
1820 3958
3040 3959
855 3960
3818 3961
1214 3962
3948 3963
387 3964
3037 3965
3271 3966
3911 3967
1748 3968
2607 3969
3615 3970
2853 3971
732 3972
3185 3973
751 3974
3090 3975
458 3976
3421 3977
390 3978
2716 3979
1605 3980
2157 3981
1131 3982
1123 3983
1392 3984
801 3985
1352 3986
3465 3987
3225 3988
2673 3989
1189 3990
2693 3991
767 3992
2067 3993
1361 3994
2311 3995
3589 3996
3468 3997
3755 3998
2257 3999
2525 4000
2046 4001
2935 4002
1217 4003
2623 4004
2433 4005
3435 4006
3789 4007
3303 4008
2959 4009
2910 4010
1906 4011
1575 4012
2123 4013
255 4014
4004 4015
2222 4016
1821 4017
3900 4018
3142 4019
319 4020
2737 4021
3692 4022
858 4023
1280 4024
1101 4025
3368 4026
793 4027
1666 4028
1252 4029
2416 4030
262 4031
1473 4032
734 4033
967 4034
1041 4035
2663 4036
2865 4037
3440 4038
1970 4039
3209 4040
853 4041
2788 4042
1969 4043
530 4044
377 4045
582 4046
2989 4047
2020 4048
1779 4049
1771 4050
1304 4051
3133 4052
2933 4053
3612 4054
2725 4055
2417 4056
1817 4057
3989 4058
3750 4059
1081 4060
744 4061
1226 4062
3730 4063
3321 4064
2979 4065
1637 4066
2140 4067
39 4068
1165 4069
968 4070
2521 4071
3206 4072
480 4073
1990 4074
3131 4075
3369 4076
1217 4077
1891 4078
1003 4079
681 4080
2050 4081
3115 4082
382 4083
3407 4084
2588 4085
1666 4086
2383 4087
1039 4088
583 4089
3075 4090
1929 4091
176 4092
662 4093
1020 4094
97 4095
3330 4096
2611 4097
607 4098
869 4099
315 4100
867 4101
3946 4102
3311 4103
1689 4104
2845 4105
1761 4106
1997 4107
1558 4108
3585 4109
3678 4110
2781 4111
167 4112
217 4113
74 4114
514 4115
3575 4116
3705 4117
1853 4118
545 4119
2939 4120
2021 4121
2179 4122
193 4123
1757 4124
1101 4125
295 4126
3596 4127
1096 4128
845 4129
3092 4130
3199 4131
4066 4132
2762 4133
793 4134
1633 4135
3092 4136
1369 4137
3018 4138
2253 4139
1246 4140
2185 4141
700 4142
2865 4143
2835 4144
699 4145
4011 4146
835 4147
1368 4148
1384 4149
357 4150
150 4151
3115 4152
587 4153
618 4154
2297 4155
3262 4156
1649 4157
2184 4158
829 4159
2964 4160
862 4161
3903 4162
1704 4163
2497 4164
1261 4165
2378 4166
641 4167
2069 4168
1457 4169
768 4170
1003 4171
3281 4172
1849 4173
821 4174
781 4175
3819 4176
581 4177
3900 4178
1215 4179
1710 4180
3188 4181
610 4182
4037 4183
588 4184
1519 4185
2513 4186
2795 4187
3137 4188
936 4189
4065 4190
2725 4191
2884 4192
2167 4193
1326 4194
3510 4195
4036 4196
2265 4197
1130 4198
1145 4199
96 4200
88 4201
3287 4202
2375 4203
845 4204
741 4205
1133 4206
641 4207
1837 4208
327 4209
513 4210
501 4211
2097 4212
2525 4213
1152 4214
2130 4215
4153 4216
281 4217
2318 4218
1439 4219
100 4220
2115 4221
3485 4222
2425 4223
3627 4224
849 4225
840 4226
3463 4227
1506 4228
1904 4229
3684 4230
853 4231
3863 4232
4049 4233
3108 4234
1785 4235
1074 4236
3905 4237
634 4238
2219 4239
3117 4240
3441 4241
920 4242
2397 4243
2123 4244
945 4245
2057 4246
734 4247
3964 4248
3501 4249
2855 4250
3734 4251
2151 4252
3272 4253
3440 4254
2445 4255
3952 4256
582 4257
687 4258
3310 4259
2473 4260
4209 4261
2531 4262
1147 4263
2570 4264
3709 4265
2587 4266
1185 4267
1345 4268
866 4269
4130 4270
223 4271
3558 4272
1322 4273
1988 4274
2721 4275
105 4276
553 4277
471 4278
563 4279
3709 4280
4119 4281
4149 4282
2995 4283
102 4284
1273 4285
640 4286
827 4287
2923 4288
1649 4289
3061 4290
669 4291
551 4292
3720 4293
2273 4294
719 4295
3685 4296
1169 4297
1420 4298
3761 4299
2149 4300
2109 4301
416 4302
787 4303
4054 4304
43 4305
1919 4306
443 4307
1246 4308
345 4309
1652 4310
3756 4311
3083 4312
3261 4313
4292 4314
2138 4315
1012 4316
3133 4317
2594 4318
1310 4319
1360 4320
1845 4321
3050 4322
538 4323
547 4324
1627 4325
1209 4326
695 4327
1939 4328
1161 4329
3334 4330
729 4331
4318 4332
3582 4333
173 4334
3994 4335
3875 4336
1216 4337
3227 4338
4139 4339
2440 4340
585 4341
2010 4342
235 4343
1082 4344
2605 4345
2507 4346
3365 4347
3850 4348
2637 4349
361 4350
1011 4351
1863 4352
49 4353
4295 4354
3611 4355
786 4356
48 4357
2255 4358
3973 4359
1898 4360
1005 4361
1390 4362
2373 4363
3595 4364
607 4365
2999 4366
2171 4367
4136 4368
3862 4369
3299 4370
1523 4371
528 4372
4083 4373
466 4374
1693 4375
1076 4376
3209 4377
3493 4378
3348 4379
172 4380
2792 4381
2187 4382
147 4383
3767 4384
771 4385
3140 4386
1520 4387
2396 4388
1881 4389
677 4390
3335 4391
86 4392
3507 4393
4367 4394
1133 4395
2672 4396
2701 4397
3988 4398
4353 4399
243 4400
1512 4401
498 4402
3843 4403
2371 4404
1632 4405
1987 4406
3425 4407
2788 4408
885 4409
906 4410
4013 4411
2503 4412
1919 4413
3278 4414
4081 4415
3987 4416
780 4417
2124 4418
3744 4419
1143 4420
3901 4421
1832 4422
3132 4423
3144 4424
3315 4425
2087 4426
1609 4427
2563 4428
1891 4429
1385 4430
537 4431
1491 4432
829 4433
2122 4434
1992 4435
1432 4436
1793 4437
2411 4438
3711 4439
1896 4440
3887 4441
1575 4442
2929 4443
2674 4444
4051 4445
1405 4446
1585 4447
4361 4448
1792 4449
147 4450
102 4451
3007 4452
623 4453
1364 4454
63 4455
3346 4456
1581 4457
2957 4458
843 4459
2832 4460
725 4461
3789 4462
1599 4463
2836 4464
1093 4465
2909 4466
3179 4467
4071 4468
3941 4469
926 4470
1035 4471
1289 4472
1214 4473
1900 4474
2144 4475
3918 4476
31 4477
3918 4478
926 4479
4391 4480
3727 4481
1799 4482
1388 4483
4346 4484
2603 4485
841 4486
324 4487
1115 4488
4449 4489
219 4490
383 4491
1252 4492
65 4493
4301 4494
951 4495
4067 4496
1828 4497
3161 4498
1742 4499
4497 4500
2111 4501
1194 4502
2355 4503
4448 4504
3953 4505
1311 4506
1773 4507
567 4508
2911 4509
4404 4510
2897 4511
3142 4512
3529 4513
2706 4514
3465 4515
2554 4516
2127 4517
2268 4518
3629 4519
373 4520
649 4521
1224 4522
4460 4523
2205 4524
1731 4525
2889 4526
1523 4527
3218 4528
1315 4529
3239 4530
1033 4531
3447 4532
1908 4533
724 4534
4020 4535
2804 4536
767 4537
663 4538
1566 4539
2760 4540
1045 4541
2089 4542
418 4543
3090 4544
2243 4545
1509 4546
3370 4547
2267 4548
2669 4549
1622 4550
3965 4551
3599 4552
4463 4553
3192 4554
3356 4555
2958 4556
3464 4557
934 4558
4412 4559
2360 4560
4227 4561
2554 4562
3006 4563
4083 4564
2085 4565
2372 4566
1793 4567
2028 4568
752 4569
3668 4570
4259 4571
870 4572
3233 4573
1756 4574
793 4575
1217 4576
41 4577
2133 4578
1753 4579
1517 4580
3507 4581
3396 4582
3046 4583
3068 4584
2932 4585
2168 4586
3945 4587
1772 4588
1905 4589
56 4590
2331 4591
3083 4592
3722 4593
4296 4594
641 4595
773 4596
2837 4597
2959 4598
1208 4599
1970 4600
3059 4601
2458 4602
1167 4603
1110 4604
2777 4605
3736 4606
1585 4607
1052 4608
4351 4609
3421 4610
1307 4611
3799 4612
3329 4613
4302 4614
3404 4615
1092 4616
2137 4617
4520 4618
4399 4619
3790 4620
917 4621
812 4622
2807 4623
1647 4624
2241 4625
2301 4626
2495 4627
3121 4628
4417 4629
4111 4630
3306 4631
3479 4632
3417 4633
1243 4634
4599 4635
1793 4636
3925 4637
417 4638
1633 4639
1991 4640
3935 4641
2943 4642
1355 4643
1486 4644
3359 4645
2231 4646
1981 4647
3127 4648
2345 4649
1111 4650
1945 4651
3023 4652
1845 4653
1524 4654
3710 4655
3725 4656
2797 4657
1352 4658
982 4659
4603 4660
839 4661
1213 4662
971 4663
795 4664
4425 4665
2551 4666
4166 4667
4437 4668
537 4669
1025 4670
4493 4671
3733 4672
1565 4673
757 4674
768 4675
4122 4676
4203 4677
3245 4678
1714 4679
3389 4680
3253 4681
3681 4682
23 4683
2800 4684
3047 4685
3992 4686
865 4687
2016 4688
3584 4689
823 4690
3633 4691
1632 4692
1005 4693
2200 4694
2367 4695
1412 4696
2515 4697
3911 4698
2714 4699
1949 4700
2699 4701
378 4702
3179 4703
1077 4704
3505 4705
2247 4706
549 4707
551 4708
3411 4709
4332 4710
2741 4711
2918 4712
3727 4713
4083 4714
4094 4715
3349 4716
310 4717
993 4718
3750 4719
92 4720
1741 4721
1922 4722
1357 4723
3623 4724
4723 4725
1297 4726
4367 4727
2425 4728
1257 4729
263 4730
4531 4731
3682 4732
3003 4733
1334 4734
2807 4735
3474 4736
750 4737
2938 4738
3191 4739
3080 4740
929 4741
3865 4742
1873 4743
2869 4744
1110 4745
3529 4746
3031 4747
3292 4748
1471 4749
307 4750
1089 4751
3145 4752
2697 4753
3645 4754
3047 4755
4646 4756
1690 4757
973 4758
4452 4759
1718 4760
557 4761
3782 4762
175 4763
1024 4764
1533 4765
2670 4766
1105 4767
842 4768
2557 4769
1608 4770
4259 4771
1536 4772
965 4773
299 4774
1473 4775
468 4776
749 4777
1535 4778
4397 4779
1195 4780
931 4781
4450 4782
133 4783
3252 4784
991 4785
424 4786
3693 4787
2670 4788
3557 4789
3690 4790
4662 4791
3272 4792
1699 4793
466 4794
3399 4795
1917 4796
3267 4797
1426 4798
2597 4799
3962 4800
1924 4801
4509 4802
531 4803
3826 4804
1649 4805
1927 4806
1971 4807
2987 4808
3305 4809
4347 4810
4383 4811
4153 4812
1353 4813
840 4814
588 4815
3439 4816
3905 4817
1541 4818
4769 4819
1167 4820
3719 4821
1847 4822
223 4823
4797 4824
3487 4825
1490 4826
2151 4827
4346 4828
1168 4829
2177 4830
583 4831
3601 4832
436 4833
1694 4834
959 4835
502 4836
2481 4837
2080 4838
1982 4839
215 4840
4810 4841
966 4842
463 4843
2974 4844
1899 4845
4666 4846
4403 4847
1180 4848
404 4849
2247 4850
1369 4851
4346 4852
1979 4853
2104 4854
4104 4855
3413 4856
3246 4857
4188 4858
4489 4859
1063 4860
3535 4861
2051 4862
3485 4863
1726 4864
2811 4865
1359 4866
571 4867
811 4868
1965 4869
134 4870
325 4871
3070 4872
3505 4873
2885 4874
4726 4875
1889 4876
1817 4877
3818 4878
4735 4879
4874 4880
1765 4881
1709 4882
1922 4883
3692 4884
1079 4885
1605 4886
1259 4887
3966 4888
837 4889
2348 4890
2025 4891
2343 4892
4551 4893
2679 4894
1522 4895
2291 4896
689 4897
2028 4898
2463 4899
4156 4900
3661 4901
1493 4902
2139 4903
4168 4904
3378 4905
2225 4906
877 4907
4165 4908
2491 4909
3838 4910
4770 4911
726 4912
1709 4913
3807 4914
4018 4915
4848 4916
3291 4917
1432 4918
3539 4919
723 4920
740 4921
3157 4922
4221 4923
3413 4924
2249 4925
3203 4926
2203 4927
3588 4928
761 4929
698 4930
489 4931
4583 4932
2305 4933
3160 4934
2851 4935
4344 4936
3211 4937
2936 4938
289 4939
2614 4940
4823 4941
2892 4942
2123 4943
1777 4944
2081 4945
1614 4946
2108 4947
4595 4948
2568 4949
875 4950
2409 4951
2098 4952
1483 4953
1910 4954
2151 4955
2119 4956
3225 4957
3522 4958
2333 4959
96 4960
2498 4961
2930 4962
4959 4963
4662 4964
1192 4965
3842 4966
3611 4967
3499 4968
2897 4969
2641 4970
2577 4971
3932 4972
3065 4973
520 4974
4617 4975
2653 4976
847 4977
206 4978
4159 4979
1517 4980
3240 4981
4966 4982
2485 4983
2683 4984
1144 4985
4526 4986
3681 4987
4769 4988
1363 4989
4498 4990
4412 4991
1980 4992
3275 4993
2789 4994
4645 4995
4622 4996
2061 4997
663 4998
332 4999
2477 5000
4709 5001
1935 5002
2271 5003
2529 5004
4917 5005
2807 5006
3536 5007
1647 5008
1645 5009
2077 5010
1657 5011
2303 5012
1513 5013
2205 5014
1059 5015
1650 5016
3270 5017
2692 5018
2985 5019
2126 5020
629 5021
163 5022
505 5023
2255 5024
4759 5025
3417 5026
3449 5027
3764 5028
4618 5029
4238 5030
1795 5031
1491 5032
3875 5033
1136 5034
4969 5035
1732 5036
1695 5037
2121 5038
38 5039
764 5040
2399 5041
4118 5042
3825 5043
1354 5044
1588 5045
2060 5046
2545 5047
4846 5048
1421 5049
4563 5050
4537 5051
376 5052
3775 5053
4686 5054
3387 5055
2270 5056
3657 5057
4943 5058
2691 5059
2914 5060
2521 5061
4065 5062
2757 5063
2897 5064
4327 5065
1992 5066
1871 5067
1613 5068
1763 5069
1455 5070
1495 5071
3831 5072
1875 5073
1605 5074
183 5075
3372 5076
1070 5077
2943 5078
1119 5079
4635 5080
3274 5081
4171 5082
2307 5083
4509 5084
4771 5085
3953 5086
3067 5087
543 5088
221 5089
4962 5090
4408 5091
405 5092
2509 5093
135 5094
50 5095
4093 5096
1004 5097
2499 5098
2141 5099
4337 5100
4489 5101
4955 5102
3403 5103
2310 5104
2405 5105
2622 5106
2253 5107
4939 5108
2509 5109
2521 5110
1593 5111
570 5112
3268 5113
3283 5114
942 5115
146 5116
2709 5117
1904 5118
369 5119
946 5120
4332 5121
3123 5122
4151 5123
1646 5124
97 5125
3371 5126
2641 5127
3453 5128
4751 5129
3986 5130
891 5131
2426 5132
1785 5133
1045 5134
1883 5135
4826 5136
722 5137
1402 5138
3746 5139
4899 5140
1869 5141
5119 5142
4428 5143
1583 5144
4286 5145
4077 5146
3423 5147
3808 5148
3313 5149
3990 5150
2757 5151
2874 5152
4693 5153
2094 5154
601 5155
1269 5156
3875 5157
413 5158
2728 5159
1141 5160
209 5161
4530 5162
2521 5163
3481 5164
517 5165
2294 5166
5018 5167
2297 5168
1020 5169
4167 5170
5147 5171
5034 5172
1064 5173
4754 5174
3232 5175
1238 5176
567 5177
3486 5178
1495 5179
651 5180
3717 5181
1716 5182
701 5183
1987 5184
4313 5185
147 5186
2083 5187
2488 5188
1666 5189
2714 5190
245 5191
5132 5192
4233 5193
4481 5194
1535 5195
5147 5196
4611 5197
1296 5198
413 5199
2924 5200
3865 5201
1721 5202
1701 5203
624 5204
2518 5205
3813 5206
335 5207
3762 5208
3219 5209
5020 5210
603 5211
1067 5212
4129 5213
3004 5214
1037 5215
7 5216
333 5217
3544 5218
169 5219
309 5220
326 5221
2755 5222
2483 5223
4313 5224
4641 5225
175 5226
1223 5227
3440 5228
169 5229
2027 5230
4067 5231
687 5232
1633 5233
1193 5234
3239 5235
2126 5236
4787 5237
4168 5238
495 5239
2884 5240
4234 5241
208 5242
724 5243
406 5244
1859 5245
4138 5246
3784 5247
4397 5248
1011 5249
3283 5250
31 5251
3955 5252
3762 5253
4926 5254
572 5255
2114 5256
3875 5257
2643 5258
1847 5259
466 5260
3359 5261
2348 5262
3101 5263
4600 5264
4408 5265
1598 5266
4859 5267
1559 5268
1543 5269
3222 5270
615 5271
3926 5272
1957 5273
2202 5274
581 5275
1434 5276
1981 5277
2104 5278
1913 5279
47 5280
3409 5281
2970 5282
1569 5283
3261 5284
2866 5285
4776 5286
543 5287
3876 5288
4899 5289
2828 5290
4650 5291
207 5292
1405 5293
3494 5294
4483 5295
4888 5296
1737 5297
4475 5298
4071 5299
2501 5300
4729 5301
3315 5302
3862 5303
4728 5304
3022 5305
1645 5306
831 5307
4243 5308
2721 5309
1755 5310
2017 5311
4455 5312
2883 5313
2263 5314
4291 5315
5277 5316
396 5317
4686 5318
587 5319
3409 5320
653 5321
5313 5322
713 5323
3505 5324
993 5325
4456 5326
855 5327
4917 5328
3457 5329
5176 5330
2895 5331
1152 5332
559 5333
2967 5334
4293 5335
2477 5336
3779 5337
5154 5338
248 5339
228 5340
710 5341
2111 5342
2213 5343
4962 5344
290 5345
1202 5346
915 5347
2712 5348
2519 5349
4702 5350
1135 5351
972 5352
2489 5353
5065 5354
2249 5355
3070 5356
3117 5357
683 5358
1027 5359
2664 5360
2633 5361
947 5362
1941 5363
1445 5364
717 5365
2519 5366
5242 5367
2015 5368
2857 5369
5182 5370
2529 5371
2105 5372
5125 5373
4936 5374
3040 5375
3087 5376
3367 5377
1391 5378
3960 5379
2323 5380
703 5381
1443 5382
1761 5383
4369 5384
4625 5385
2230 5386
4101 5387
396 5388
2101 5389
832 5390
1977 5391
2500 5392
2161 5393
2905 5394
4920 5395
3121 5396
3493 5397
2834 5398
1369 5399
4306 5400
3337 5401
132 5402
3055 5403
2730 5404
3120 5405
234 5406
3597 5407
4086 5408
353 5409
3426 5410
1532 5411
4180 5412
4579 5413
2609 5414
4507 5415
4119 5416
441 5417
1011 5418
3162 5419
2532 5420
2096 5421
1810 5422
3561 5423
3865 5424
3777 5425
5366 5426
497 5427
5321 5428
5061 5429
3146 5430
4823 5431
4479 5432
1977 5433
2930 5434
3755 5435
1866 5436
1142 5437
2413 5438
3405 5439
4734 5440
4230 5441
1532 5442
3883 5443
2832 5444
1184 5445
325 5446
625 5447
1585 5448
274 5449
4286 5450
4917 5451
2202 5452
1477 5453
2195 5454
1729 5455
4092 5456
4649 5457
1089 5458
609 5459
3040 5460
371 5461
5148 5462
5403 5463
1466 5464
3212 5465
1938 5466
3170 5467
2099 5468
3059 5469
532 5470
4773 5471
3236 5472
4878 5473
1974 5474
5369 5475
5003 5476
2972 5477
737 5478
4686 5479
1188 5480
1021 5481
4286 5482
4909 5483
2027 5484
2109 5485
1175 5486
372 5487
142 5488
4005 5489
3851 5490
1224 5491
680 5492
4033 5493
2704 5494
777 5495
2118 5496
628 5497
2432 5498
1471 5499
1899 5500
1755 5501
1141 5502
3639 5503
4455 5504
2873 5505
4946 5506
5103 5507
4955 5508
4701 5509
1595 5510
2599 5511
4559 5512
933 5513
1768 5514
4799 5515
5147 5516
431 5517
2653 5518
3505 5519
3619 5520
5420 5521
3153 5522
3391 5523
3925 5524
1151 5525
569 5526
3775 5527
2986 5528
2725 5529
736 5530
2524 5531
4050 5532
1400 5533
2861 5534
4129 5535
1705 5536
441 5537
1186 5538
4931 5539
111 5540
4343 5541
4702 5542
185 5543
1392 5544
4561 5545
788 5546
3423 5547
2071 5548
3417 5549
4045 5550
485 5551
1956 5552
1205 5553
4753 5554
2443 5555
2176 5556
826 5557
5149 5558
3229 5559
3856 5560
5546 5561
3415 5562
5331 5563
218 5564
2379 5565
2871 5566
5503 5567
803 5568
1787 5569
2901 5570
433 5571
1241 5572
322 5573
2795 5574
2915 5575
175 5576
879 5577
3565 5578
488 5579
1907 5580
62 5581
3539 5582
4124 5583
299 5584
5559 5585
5132 5586
3993 5587
3606 5588
5501 5589
4627 5590
1591 5591
4501 5592
1035 5593
4652 5594
1385 5595
3408 5596
1711 5597
3269 5598
4967 5599
3962 5600
1943 5601
3955 5602
127 5603
3794 5604
2373 5605
869 5606
2147 5607
5600 5608
5337 5609
2382 5610
1247 5611
5253 5612
1780 5613
2680 5614
1313 5615
3326 5616
4739 5617
1739 5618
3728 5619
4955 5620
1003 5621
457 5622
917 5623
4286 5624
4979 5625
4872 5626
3947 5627
1388 5628
537 5629
576 5630
2247 5631
2907 5632
1390 5633
5005 5634
2851 5635
982 5636
4247 5637
3966 5638
3075 5639
1689 5640
1377 5641
3043 5642
2207 5643
2380 5644
5549 5645
3625 5646
5371 5647
4830 5648
2891 5649
2260 5650
509 5651
4261 5652
3610 5653
3863 5654
504 5655
1071 5656
4125 5657
2728 5658
3935 5659
5050 5660
4121 5661
3289 5662
1977 5663
3998 5664
5297 5665
2647 5666
2879 5667
5625 5668
4030 5669
3163 5670
3025 5671
5543 5672
4841 5673
2093 5674
2721 5675
3174 5676
536 5677
2612 5678
4381 5679
2735 5680
2033 5681
4956 5682
2405 5683
2075 5684
4987 5685
3408 5686
4255 5687
1182 5688
4892 5689
2460 5690
169 5691
3766 5692
313 5693
3133 5694
1450 5695
3009 5696
5462 5697
2011 5698
5223 5699
2595 5700
1078 5701
4724 5702
2871 5703
401 5704
2009 5705
5522 5706
5012 5707
2907 5708
5357 5709
3945 5710
3205 5711
2745 5712
4792 5713
635 5714
5691 5715
1288 5716
2581 5717
5028 5718
886 5719
5224 5720
665 5721
1423 5722
5385 5723
2901 5724
4233 5725
1604 5726
5373 5727
3918 5728
399 5729
4556 5730
4958 5731
4666 5732
1334 5733
858 5734
3513 5735
5446 5736
1655 5737
5340 5738
2133 5739
2024 5740
3302 5741
3168 5742
5333 5743
5338 5744
13 5745
1401 5746
1610 5747
4211 5748
643 5749
2422 5750
5405 5751
1263 5752
777 5753
3394 5754
2842 5755
1939 5756
1782 5757
3678 5758
1835 5759
3011 5760
555 5761
1555 5762
2883 5763
2995 5764
3811 5765
3336 5766
3679 5767
436 5768
1649 5769
4778 5770
3569 5771
3617 5772
3581 5773
3141 5774
5409 5775
1642 5776
4172 5777
3728 5778
5648 5779
3367 5780
3797 5781
5070 5782
211 5783
3978 5784
2335 5785
959 5786
149 5787
689 5788
2665 5789
411 5790
3025 5791
1715 5792
165 5793
1886 5794
3289 5795
2170 5796
231 5797
4326 5798
4781 5799
646 5800
5120 5801
1755 5802
2841 5803
4643 5804
1806 5805
2853 5806
1945 5807
5353 5808
5112 5809
302 5810
1538 5811
227 5812
3443 5813
4139 5814
3434 5815
4091 5816
1257 5817
5633 5818
3083 5819
5153 5820
3616 5821
3635 5822
3103 5823
3955 5824
4805 5825
4794 5826
2985 5827
955 5828
3007 5829
5347 5830
5322 5831
1729 5832
4166 5833
3775 5834
1327 5835
1362 5836
1266 5837
3758 5838
3027 5839
9 5840
337 5841
4865 5842
4243 5843
771 5844
4235 5845
67 5846
789 5847
1939 5848
3121 5849
4393 5850
1077 5851
1221 5852
4193 5853
3781 5854
1963 5855
935 5856
4849 5857
2835 5858
3871 5859
1361 5860
832 5861
5227 5862
4589 5863
3966 5864
5744 5865
3754 5866
3925 5867
2804 5868
3061 5869
5101 5870
371 5871
3991 5872
3306 5873
2098 5874
4937 5875
606 5876
2212 5877
526 5878
389 5879
5505 5880
578 5881
5740 5882
2144 5883
1852 5884
4445 5885
5547 5886
537 5887
501 5888
2328 5889
4421 5890
5847 5891
4187 5892
143 5893
3448 5894
249 5895
736 5896
2721 5897
1120 5898
1161 5899
3825 5900
4341 5901
2640 5902
5071 5903
1204 5904
4522 5905
3296 5906
2285 5907
2433 5908
4134 5909
2839 5910
4867 5911
218 5912
414 5913
2373 5914
2369 5915
632 5916
3491 5917
1313 5918
3581 5919
1493 5920
2352 5921
5480 5922
5669 5923
5658 5924
2245 5925
4538 5926
4837 5927
5700 5928
1920 5929
1649 5930
4655 5931
839 5932
1641 5933
5557 5934
3906 5935
1238 5936
3589 5937
2662 5938
3107 5939
5935 5940
4492 5941
4497 5942
61 5943
1153 5944
4591 5945
1855 5946
2621 5947
2936 5948
1757 5949
5223 5950
379 5951
5674 5952
1793 5953
5281 5954
3152 5955
4902 5956
4441 5957
2236 5958
1119 5959
3097 5960
4397 5961
4625 5962
2525 5963
1030 5964
5174 5965
5495 5966
2785 5967
1555 5968
2472 5969
5289 5970
5779 5971
5074 5972
541 5973
4603 5974
2639 5975
4743 5976
4351 5977
998 5978
2314 5979
2725 5980
5869 5981
3749 5982
4079 5983
1860 5984
5052 5985
4207 5986
3090 5987
1531 5988
2801 5989
1134 5990
1977 5991
4304 5992
4139 5993
487 5994
4583 5995
5679 5996
326 5997
3947 5998
667 5999
2551 6000
3451 6001
2665 6002
2396 6003
534 6004
5789 6005
3614 6006
3526 6007
26 6008
5017 6009
31 6010
4013 6011
1113 6012
4539 6013
4895 6014
2287 6015
80 6016
3529 6017
3052 6018
1605 6019
4683 6020
4737 6021
200 6022
3835 6023
5946 6024
353 6025
5889 6026
3971 6027
4840 6028
5052 6029
2568 6030
3178 6031
101 6032
1877 6033
3586 6034
3697 6035
5666 6036
195 6037
2725 6038
1869 6039
2520 6040
3481 6041
3770 6042
2415 6043
4176 6044
1690 6045
3450 6046
5329 6047
1535 6048
5021 6049
3622 6050
749 6051
1154 6052
1825 6053
3515 6054
706 6055
5607 6056
4401 6057
4754 6058
2440 6059
6046 6060
4537 6061
6033 6062
4997 6063
1410 6064
2223 6065
5093 6066
5934 6067
5662 6068
1021 6069
4824 6070
3787 6071
2193 6072
1705 6073
1317 6074
2565 6075
2823 6076
3773 6077
2877 6078
671 6079
2619 6080
161 6081
3911 6082
3363 6083
389 6084
1946 6085
3637 6086
4661 6087
3200 6088
5236 6089
6009 6090
3356 6091
1798 6092
5125 6093
4591 6094
2215 6095
5466 6096
1841 6097
3067 6098
4786 6099
1525 6100
69 6101
5287 6102
6013 6103
2992 6104
4519 6105
2398 6106
1005 6107
5919 6108
1077 6109
1774 6110
5069 6111
1282 6112
1965 6113
1903 6114
2461 6115
1772 6116
1037 6117
1265 6118
4359 6119
5897 6120
1592 6121
5022 6122
4821 6123
826 6124
1641 6125
4372 6126
549 6127
243 6128
5265 6129
643 6130
4158 6131
3200 6132
3207 6133
89 6134
4572 6135
291 6136
5824 6137
174 6138
4093 6139
3228 6140
2399 6141
4823 6142
5657 6143
1833 6144
4567 6145
2859 6146
3201 6147
658 6148
5649 6149
125 6150
2596 6151
3080 6152
5343 6153
1799 6154
5137 6155
3999 6156
3073 6157
3732 6158
1023 6159
5457 6160
4177 6161
4861 6162
3223 6163
1719 6164
2139 6165
5324 6166
739 6167
2301 6168
3533 6169
5042 6170
3921 6171
4617 6172
1043 6173
4843 6174
3135 6175
1980 6176
2064 6177
762 6178
1772 6179
4333 6180
2918 6181
5115 6182
1580 6183
3920 6184
3589 6185
2088 6186
5807 6187
4147 6188
397 6189
5679 6190
5271 6191
2242 6192
1249 6193
110 6194
1399 6195
627 6196
2411 6197
2085 6198
3537 6199
596 6200
2808 6201
3538 6202
1211 6203
1082 6204
940 6205
3036 6206
4257 6207
341 6208
781 6209
1831 6210
1705 6211
3946 6212
1249 6213
6034 6214
2651 6215
1264 6216
1121 6217
5691 6218
1675 6219
2112 6220
573 6221
5508 6222
4182 6223
145 6224
5242 6225
35 6226
225 6227
54 6228
1281 6229
824 6230
5133 6231
3427 6232
2319 6233
2577 6234
2269 6235
5050 6236
5928 6237
5216 6238
3899 6239
230 6240
4325 6241
5796 6242
5441 6243
3340 6244
361 6245
4405 6246
1755 6247
3283 6248
49 6249
4848 6250
5486 6251
4067 6252
4688 6253
5405 6254
3527 6255
1663 6256
3493 6257
2776 6258
5045 6259
5092 6260
3305 6261
6059 6262
3114 6263
2039 6264
4141 6265
4294 6266
5317 6267
5968 6268
1964 6269
371 6270
4711 6271
5447 6272
2112 6273
984 6274
1305 6275
2488 6276
3351 6277
3167 6278
2483 6279
6230 6280
6125 6281
4032 6282
4729 6283
5725 6284
4926 6285
453 6286
5478 6287
4779 6288
3345 6289
2683 6290
5182 6291
5365 6292
385 6293
12 6294
4931 6295
3225 6296
2806 6297
4015 6298
2601 6299
1075 6300
1633 6301
2810 6302
2417 6303
337 6304
3717 6305
5577 6306
3455 6307
5146 6308
4723 6309
2240 6310
318 6311
2944 6312
658 6313
830 6314
2841 6315
6185 6316
3412 6317
2802 6318
2644 6319
2183 6320
905 6321
667 6322
2633 6323
5510 6324
3025 6325
5042 6326
3071 6327
1231 6328
2913 6329
1457 6330
5165 6331
4334 6332
3441 6333
5188 6334
2076 6335
108 6336
2543 6337
5920 6338
6103 6339
1548 6340
5721 6341
2942 6342
160 6343
6269 6344
6065 6345
5556 6346
1879 6347
3652 6348
493 6349
5136 6350
3110 6351
2628 6352
105 6353
2516 6354
5445 6355
5327 6356
1373 6357
4378 6358
2709 6359
3953 6360
201 6361
4504 6362
3573 6363
580 6364
3767 6365
5163 6366
5025 6367
6328 6368
1395 6369
2008 6370
4499 6371
1602 6372
5917 6373
2186 6374
822 6375
5204 6376
5565 6377
4283 6378
5830 6379
3504 6380
4721 6381
1442 6382
1371 6383
829 6384
5089 6385
3534 6386
2663 6387
3924 6388
1125 6389
5906 6390
2443 6391
5550 6392
2830 6393
305 6394
543 6395
1059 6396
4381 6397
2744 6398
3751 6399
1046 6400
3161 6401
6379 6402
1037 6403
5291 6404
334 6405
5883 6406
5321 6407
4144 6408
97 6409
2471 6410
1602 6411
1026 6412
2194 6413
1925 6414
5295 6415
2384 6416
5664 6417
3138 6418
1314 6419
3212 6420
3493 6421
657 6422
2276 6423
4217 6424
1233 6425
2796 6426
5889 6427
4958 6428
5747 6429
916 6430
4391 6431
3615 6432
6185 6433
5402 6434
3673 6435
2488 6436
6301 6437
3266 6438
1073 6439
1058 6440
5422 6441
723 6442
3488 6443
2804 6444
1493 6445
626 6446
3326 6447
19 6448
4987 6449
1234 6450
4027 6451
4551 6452
6118 6453
741 6454
3668 6455
1532 6456
927 6457
3617 6458
3038 6459
6174 6460
3217 6461
2248 6462
827 6463
1988 6464
2394 6465
3469 6466
721 6467
1694 6468
1246 6469
6144 6470
3997 6471
5183 6472
5914 6473
4468 6474
4154 6475
6171 6476
4101 6477
2090 6478
4989 6479
3513 6480
225 6481
3812 6482
5700 6483
1789 6484
161 6485
3896 6486
3451 6487
6016 6488
637 6489
1185 6490
1989 6491
6457 6492
1592 6493
520 6494
6467 6495
5568 6496
863 6497
2384 6498
2323 6499
5758 6500
3803 6501
5485 6502
3999 6503
2349 6504
5362 6505
1776 6506
2701 6507
1584 6508
4130 6509
3746 6510
935 6511
235 6512
3918 6513
5382 6514
4753 6515
4176 6516
153 6517
1928 6518
4243 6519
6381 6520
2345 6521
957 6522
5686 6523
1603 6524
5533 6525
5739 6526
1488 6527
4086 6528
2155 6529
2865 6530
917 6531
5457 6532
5784 6533
3109 6534
6484 6535
1215 6536
5321 6537
3059 6538
5042 6539
1302 6540
965 6541
4131 6542
1421 6543
5462 6544
2596 6545
2610 6546
2809 6547
4215 6548
979 6549
4171 6550
5733 6551
4713 6552
5065 6553
3298 6554
6335 6555
3105 6556
133 6557
1616 6558
3705 6559
3853 6560
5053 6561
