8453
274189895 719207729 104631890264753925
594689187 405285033 174924314361203688
356960007 633952071 122600479529884756
853205369 142644173 59097037697997402
104006259 897007553 69409431583217784
676527883 324331991 146713777141021902
350399391 640950147 185899998595678424
848255525 148107654 22782826803584147
165256400 833249273 128901619757152364
227825681 770195737 169193108375793060
959751566 44447178 29599257603582797
706718033 297141632 33722581065685456
730261437 273458822 125513386337679716
413767841 581123089 96083881916258575
621140760 377988881 98201471058201816
39615258 963077736 32129838470492246
334331905 660291138 30268626203109111
999414428 408640 95885446918934
598853377 401796865 98627056295832768
926096469 77202063 60148530502373514
212129936 786849157 110170456436007288
883392065 115763751 3828624511151174
546448383 452212081 215618629228333614
855423463 140853962 88824880947132013
903935873 97668412 15912427465224246
266585945 727135105 174892760428556524
938576552 65623137 17686115875537867
543034195 457137525 78954557534898335
852436042 143651013 112191910764703173
574193353 425125891 73747271511293620
737928875 266026124 136580804807849667
32784705 970205259 20276059825819906
456063153 542789049 129446939321170250
280941642 713297867 104248677431375723
111821857 886998193 71958032698143977
920824008 80710813 55202041404901814
55676071 947238561 8521836109993212
917200543 84361865 13918775006380361
270385796 722683928 145076992984720158
575174457 424583959 154175164917691776
898953233 100707765 30687124349251350
974947385 27695743 11589498282670104
210776063 787699629 68389457282594328
341874329 652302383 54762740404568252
464444127 536320361 179409594769172888
598020363 402695791 140129926292172832
650814949 349533093 2765952268139770
374732156 619509893 145564394242047058
824965003 173175525 940963896316248
401050119 593224907 132877534895683192
371799719 620994495 165988865629898098
394153613 602129512 219926798724360153
799389296 199502273 55805925467364734
997424962 2303081 994199052586668
645180625 354016229 95270145536310468
183698039 811999788 142527489278109032
121688954 879266025 78661071794924260
833287331 166105601 77794539126862680
810643951 190075545 85933713814800564
224645553 774648259 244814213412136
416126737 578201017 92567955508531058
304985796 688356340 86879654935887790
301265073 691816616 138008142013461724
906154609 95389089 57102326605600258
734143417 270244909 50030027330644492
946934845 55124851 48127643232534564
875311773 122120717 103787641302395138
296224103 698087342 180491985808372369
995427382 5394045 3170409365125231
847554945 148434945 55066271245542958
728195660 276779647 164188625500686069
450628314 547839217 233845079025966668
195065140 800941634 102129288287943405
276392903 717157563 26467891350148288
855805751 140565440 116302425853124529
345391448 648674929 117266761186872363
746877787 255738369 21049101795585590
256940131 736622347 33078571001630633
655970309 343355229 38266823347945604
314315891 677183368 28079193670768557
365086695 625761417 145791990997624530
786453999 212442741 166005466479795484
181480652 815217290 61788408832870053
762557887 237981571 102656647283228898
64662611 937175495 57204329491721248
13141273 986643390 5983340979668846
575727066 424049053 78799527165267341
841564017 156626509 42553325060875074
334157567 660498129 59475411356606718
744490102 258640096 84251054586536891
800032465 198794417 152388481488416118
69722227 932936421 30327484124733976
331150082 663523340 155727056808158942
406242017 588838411 43835020202920374
251062895 741495597 151106937448854545
643965997 354856607 223374466274157804
968082862 35034671 15015427457224364
23537492 977975724 17809642834131120
811052895 190043650 73195791256232850
567050989 430516255 225051874580447274
489639599 515042594 121343093902280484
173142494 824445713 97700647501056443
782116735 217621797 77521182919479828
638946135 362060439 141812837817145768
493269083 510609745 12010159648135222
512780707 486617921 134450808293789014
900080434 100429617 68354705028250393
936185344 67671362 14277953521046220
750540817 252153901 183319129327102570
70858606 931501853 48546393919127497
174708225 823208429 129724803584000745
508033640 493153317 172944884932753591
502987657 499155935 8160785136411864
910290019 91527561 31307883131913385
262588051 730514945 4296830720540952
448655966 550330171 173258979331687145
945790366 57140749 14686899056608039
97702646 902215551 58926192679090223
143388778 857932677 65185708204778201
909801837 92414667 36759655706774526
98848831 900149348 75928902628106420
276666375 717121651 193645045738915528
37604240 965424419 10308854850174686
427524471 567420761 88715299181700492
718349289 286778206 85261625300962656
363170597 627602484 182078257106547539
787423149 211437341 11855091060619614
951058617 51209176 31386283634030856
937030294 66876505 23021334094337274
233664865 763390905 128328404054389778
783326667 215185360 51013517384520932
403343565 590241033 167484897604697013
482141129 520951221 93219261594260671
236320817 760054230 113367804731648217
551450664 446158753 192130320071050129
673305931 327054189 139331403831063357
630423506 369470178 155529445671587373
628803649 371350017 138440368799884280
852503328 143488319 23095749203774505
5678075 994204485 371279303682286
12048574 988021253 11107948161913333
826573777 171465385 47496954071728896
496733304 505784158 221798037248866521
185522849 809998792 130102280348037634
557640031 440418308 51969909865043809
267266374 726735863 134285123716945639
595390849 404605293 53306867177764845
94165 999618177 52383154795054
107732369 891095159 34261481801482596
752253588 250066591 164670565806516314
673186325 327352313 200256035009812900
898375853 101353705 40231895940091286
685984001 315944344 198543248172739819
370962263 622002385 210126692180772594
528831695 471450737 180171060978357522
45886913 957069698 7570227544257732
457532535 541917745 59830519449011136
819863369 178107199 9960375382126849
902344201 98497361 19538552157067637
166608525 831254213 129879644681157074
48182787 954709879 33598746023789222
598918681 401285869 33982113332998154
425120101 569756593 190999993739342643
454454531 543763817 188213665089314518
386576123 609192646 190251971288278001
455115351 543354233 205087997048265960
13168698 986452925 5804688169055325
667461217 331261305 47704860131455258
781090337 218199301 105555852778864641
577348737 422492049 47834179805870516
138219375 862789465 7059430481169992
235679569 761061911 88026437011028448
34976267 968455129 54607224531867
589597921 409687553 99996532092398541
182611513 812945383 137217969182843477
823491577 174692361 8224743863443117
198869658 797582839 53687565806807857
765048899 235388947 106679050050103518
482081925 520974465 57379250005794596
480864217 522622602 77586836641253479
974657885 28299349 21096367128109437
266376498 727198657 91961890566095407
86975841 913725471 78492288213414252
204551649 793428307 98414921949894477
738127049 265836437 146483786855352078
683361713 318340274 107561911412308771
452872155 545473408 202959992265051973
417992934 577150860 129674998393392891
167884823 830936333 44371094153520340
463228575 537412075 161688250067729050
596283391 404112163 148589938925127797
104127871 896965377 88130618361278978
700938493 303613039 157966833361202916
474350056 527766801 90345070331993176
363980685 626712453 104440376389624861
151858109 849403345 124491241087752864
704864193 299195897 81229271552107956
636480941 363822396 65495973811138994
951760139 51056969 29072172718038976
103214546 897420305 63058333736650989
985647554 15587650 1142114165198326
795130609 203611334 110769101087372689
91943825 908610009 59379735751993598
269323177 724480821 95308972328996408
639517090 360127723 72973592848480755
355335327 635060857 197578582733178689
808606765 191527081 34842251328919160
439207625 558111085 158604888222270068
789680499 209845921 28592952503947038
121794809 879023689 23199284866701150
39470365 963358094 37467139196919059
756146157 243269449 28923035545751446
240580621 753865987 50482030054656704
142342141 858366609 92082720430317498
426379120 568117001 114816183846285010
356711291 634319917 80172556508469180
542306208 457628791 201436203877505405
635654017 364470617 4787576728320570
555459835 442998563 78521800224835345
243389737 751233217 106584439198530800
585814075 413146364 198945681645069949
222493926 775888050 13075044938430270
138659537 862412012 108737632716962428
222518401 775630275 46045873111188860
747712689 255071047 20260419152645168
231550417 766239865 104229448952530814
221592626 777073145 11738867392930291
963310909 39945460 7104261957702458
703503889 300895065 156905505460454411
839313285 159793023 106451308629440728
465214807 534952185 51927942609388030
360820345 630258674 87191107851652099
972049008 30937479 24416100052019718
868365857 129360833 86459230767814383
391571417 605247865 85629370411691195
207118279 789779557 55833891652677500
713349067 290450063 175050253545700088
283870000 709782785 65082954853537845
3014820 996783185 1845253326303952
250946345 741730969 94142593075979760
98592612 900575561 75218885505510913
802049137 197120641 93219447558715515
743128080 261104097 156555902127814136
944983508 58886174 50545180783544407
368695041 623328249 24034055327299263
929832961 73932458 23713033611226304
198978497 797579352 116353718861558262
296282058 697821591 171884675976885755
136326678 865513601 67633370310691686
620132401 378897633 76939818113408280
493833605 510373012 6875143523601880
522139943 477451817 67203204544091360
901883983 98613975 25214350222288423
689085113 312543502 107985232417634056
427971681 566377731 158237889193878524
405460168 589109157 171966526216926826
477671379 524920139 147293789787548103
946675093 55320681 25847263541609510
372303233 620946053 67971898572480132
291193238 702176765 78050133885446660
898240769 101999361 31304591768986670
310886931 680158929 199550368828265700
569892423 428986137 55196758416598721
85590752 914843537 6066096015384342
900697373 99418149 30586619512462822
915243339 86769283 8054603099582236
223497804 774816519 11608469527244021
759321481 240979941 70054667216650252
387648969 607499120 191189655724603231
789847873 209314805 88084467671412641
589366273 410568713 161490343223245668
338491511 655131155 58085182742324057
491672331 513558729 56390686913519920
391979221 604860989 131473046317173815
79050511 922479707 68421475761870304
400463301 594441473 68203887814996208
726072273 279489745 189483074738052732
400135921 595080049 105915859697730088
983216575 18360898 8490886221893635
175907625 822226945 144020940915008945
200184445 796889297 132267682588063208
259222109 734937263 106487541918580584
166394283 831793221 97129530549753796
39191293 964063952 11684847751212010
57046356 944982947 47573226553002464
191783140 804060209 119687058998648064
688947242 312967756 191431541778145447
41011835 961391733 3532157331916738
944866582 59140657 36636335280010850
604538160 395720153 232263269471021052
119019733 880591745 22820128815905214
70035872 932453141 32737581499736455
44342437 957602981 30285899954470018
236328204 760050424 134736409967507978
268577257 725067919 9835112382640178
187339887 807830305 86588712566444295
899284309 100642319 18657408306321089
749363905 253276257 60586610232399860
899243131 100659052 67306563311014411
744801841 257874118 10946856996383023
901051215 99108161 66705386497410705
227581413 771614917 172643743989776628
118235137 880958435 51793269425385250
92518876 907452769 10947549955669718
646705961 352017189 63125410415547276
966488612 36448693 1327574832542542
553146987 444895684 210023894360121450
840491195 158069139 92181731549791727
628265597 371838771 32449082650058366
563186417 434056885 3563116725451932
158894137 840742925 108529697394266125
421648369 574260460 208198497048272735
245678758 749017674 165943018599716367
149971877 850519486 18607718728654591
144890981 855386268 79496954263795570
68106288 934057420 862780850116904
564698972 432128383 218234882595376052
947240009 54325017 49010589149952870
942803055 60887637 56086395293659572
429249307 565445237 69805148487941128
215633351 782926049 122231756911625948
423698438 570962305 87564754185802581
821052179 176501356 87199393038644131
397466681 598566749 138460681421374982
328610673 666248248 197054659922154252
606837527 392987148 67159383266213949
291598578 701425399 97146858912300893
779042758 220284993 156036941628431417
573290989 425598613 152384394602993104
470930437 530102854 67427162090720783
166035461 832494583 135891318472775688
215272747 783229624 162756548348993738
967838672 35045697 7053249933602571
375161875 619311564 9200358991514356
877308589 120148713 21704318977847156
123653433 876261573 64055190152401944
788568511 210968222 51824759526342615
487873004 515936336 94981959248844433
252516503 739909422 23239050031983875
924503781 77528325 14812071159704144
244184221 750335193 175191522703208464
101276973 899005573 66835931250139176
337293489 656021541 14226110662656709
854193265 142048425 120588509336107240
408192088 586047857 181052401886261030
978892586 21477163 15099713927994801
696473051 306620549 39906593544606436
802789473 196617185 105202233502624626
314931354 676903509 71496464041976296
991727633 8977058 5985651846509296
325820321 667922379 210695675378784854
428671806 565941559 57187747403739438
597311512 402979543 138174957845910367
570537422 428803080 150361027795508755
261341873 732585040 164481064621741751
509629957 490519929 62701593559705008
574199643 425027171 165441247980064774
189097689 805902582 34335867552934154
626536209 374199321 56991548231811597
41332463 960757772 1912976790359383
740466697 264153025 112945788648890046
80068377 921833201 27756253781967710
703425347 301065219 90507563678703906
446186794 552959221 35456703204799816
27021971 975509649 22184223693560513
894594879 105141838 80213127391237490
158418313 841182766 85045056711489153
234917623 762057073 111785751458554922
124504495 875625953 31673379335453566
415334673 579341897 113689927484463466
252414979 739912593 31811528236063769
47500248 955534905 24625094251294459
990095896 10520560 9117040273211060
872864029 123601015 61657902694370416
686393505 315833088 23088699161628344
560081151 437463203 173460348702261927
736229305 268721529 139675210535790022
758852007 241068217 9529070568028624
559267438 437745045 19929997645921908
161392561 837412761 74080577428717139
875675921 121354099 94045411244601516
966975413 35666947 33755277227915469
186903833 808184529 121852356911084114
155684753 844644659 62594690003363496
787466241 211350697 115026347984426813
181513976 815103636 140701407500121864
282553211 711221910 74972882164768249
408455305 585983967 155167577769459626
878224540 119111717 87588381895737548
757735312 241590793 163364731349605156
869746369 128087065 40910794644565612
848787470 148032920 11088279446032870
973490777 28993177 6815004583425224
852064818 144053749 23129844479354704
642080672 356629713 67587693844825090
21950801 979430945 17147419758040462
682843795 318744895 205822761666900579
632827793 367368769 155802903897440071
27899681 975010313 19081286886428098
78773376 922617809 55351325247966262
955107095 48142039 42880725128930724
419950877 575368080 20235014825138996
1542487 997604577 22614807893216
290335229 703206233 196666014618533354
165770764 832837965 37450455634306376
78056749 923276705 62018428454423142
656928437 342268669 209800030046563524
274822513 718215237 114335961538728000
398956343 596179817 186946965148995997
505624129 495862689 188949042084866734
293085482 700305673 153768397390223452
686504086 315724058 12044258557228631
577558945 422286904 199506827420458236
808505122 191729613 91804489712781434
768981761 231066257 170527327823851848
97285231 904467305 80534908574316936
620718593 378191025 115516811912169831
888517166 111439331 91613762788597099
369692499 622920591 229443674934611622
53148773 949664809 41085960686023292
85600159 914543807 7483762002195658
729236511 274826613 82817549973980390
225037733 773593495 51658319008235380
995378721 5424017 2414555632973094
667906900 331074405 42346941358955722
751089390 250995141 60910744701222079
59022081 941378945 54855757819328058
887178393 112486729 82894267140506492
409511622 584352713 82960276942016026
391942017 605035391 120353129299886717
212581969 786318343 130519877604333523
578255605 420628616 4731078225095390
639246207 361038993 31687195076502385
241481009 753263385 3995288731861211
343695009 651197873 150309025893366324
697172609 305753788 153589302541718514
391196072 605303205 41479328954183724
708957193 294943608 43277375925807556
398290881 597363985 51013867294594213
894033675 105620397 31357236324494658
625637121 375735615 101989506697347016
550278161 447590673 123577274215395653
66916637 935712539 27142691961674128
896459662 102957615 29246724546284746
378573978 616483005 207456137387001280
754099376 246833097 148038058585402990
291578792 701680663 36621211642195180
310490265 680477013 110270478912164879
214741321 783837490 121091878681503600
742060543 262055744 97743609862952250
175557704 822307725 91624288733513881
753225489 248649242 74586235868341774
272666540 720429987 153745124740872078
508785641 492478269 83541862689850219
836289073 162716853 7232897790760838
341459101 652449484 65274943931109469
528274909 471996353 176100231458499270
634025181 365737229 57287319543035509
901763373 98753729 87606938234703062
78060431 923248551 44149721896676960
14275425 985236082 11206221142218197
471068853 529958761 114763219834789999
464416553 536346662 167440662203773051
999414508 266286 200047078148361
767884085 231887093 105095597976687811
210457562 787896709 40491831761205800
22995663 978378411 16140651559574070
394894630 601001720 30038931404725842
749505657 252967806 185893023616038397
132731283 869236241 82439447350218183
618938945 380066185 25859241792923170
782442159 217254349 114483126733274400
804981881 194879699 59874914149918368
302695465 690820435 52694241233327372
696748492 306265443 101821500892644837
334362685 660156464 171359743446707063
152828573 848074349 33783899407674496
900132655 100102588 43097984991565176
765742521 235144835 23130286329473524
569177681 429449841 194082901736079494
964521009 38811222 6065376570266751
852456509 143511019 25330166253045724
472639425 529054059 138051411301235682
758140085 241521607 12333062702798546
986217479 14858188 1141064092770676
346563034 647657598 133572478996643938
723793500 281235817 80286235639182092
20674589 980432801 5732569286537319
709966168 294092127 33502975108956586
649701223 349974692 176339261137395685
817886515 180771522 128011417799461967
972805921 30377398 16913382972378187
76615931 924055449 67071272510087429
461343045 538896765 7414711078779150
655889894 343605829 158323541553094658
261677233 732148397 43670028194739408
653000101 346501567 34276236801832430
933823009 69808785 22181134391039715
327413989 667394505 118293394280383070
143498486 857184535 66026043641308275
456919717 542345465 38335942764862141
823241781 174955773 350722148803328
883886453 115103073 62527026428775346
797664703 201369514 122604282296711366
39987865 961954101 17265146940737596
514340016 485607649 113280411746209806
406883545 588360794 3723748889197561
402374626 592551072 56964805573777143
353393403 637892993 102695679418737308
15132789 984319185 5713671990173707
311440025 679792341 11200542904983052
859566835 136829569 112722678257953724
548393189 450014945 28672890422379688
431526621 563083655 227097243820927156
189367725 805629607 15525872411368308
947621565 53908643 4491338545204862
833652143 165256423 48744671337585952
778068145 221870767 145558287744732785
312868060 678737526 163510685975432716
871434051 126395489 106757954025206644
50926464 952676613 9921322594109950
591757129 407795401 173705880071371637
270215420 722879713 124673790114154560
820780400 176812170 33479785459384101
324330745 669607646 187437112842572659
362872596 628433660 112054165298532558
133100641 869218097 113510111815333386
11480065 988377139 5996971431240464
412106613 582715737 228430789605718844
283971905 709680404 15403806564304054
173927471 823804311 82426351759517618
114484236 883620843 80759781137614212
378569337 616519695 158169818318105821
90474959 911328293 33226181739468970
682395985 319007501 105583931515162019
799504651 199291058 82339718358884398
431507625 563119325 2212525725071124
670261091 330005191 202948776427229439
22531638 978835327 13732752560829907
986600853 13809673 8084180155811994
940888091 63313551 59023323001254522
916817772 84941537 63554520036808466
373916616 620409503 56141569210770050
548529929 449864841 138902367637741644
986587145 14013342 2457080093582541
913812759 88497405 65215214489259468
817753745 181231343 127744563684433965
984489073 17049681 5539540831013962
662970711 335508781 175137940662075438
2681813 997055997 2094176819916501
867390440 130449367 63996483260045134
259219850 734985577 17739217279377001
427367483 567640519 197181904809105634
265131977 728712230 107742620199645484
810224721 190744773 54390306061650739
657314452 341201855 98653597034553784
965612133 37135187 8681503186631746
581412235 415796730 70213583601555161
403204004 590474083 63662931639523192
173643449 823894152 86400654760284828
145276097 854961633 124069845715779394
450447361 548077313 63451566271874445
810580640 190080654 18294757630067602
822859793 175802911 41042494306975687
596141156 404273183 206772877931319870
149419031 851381633 46919152228301624
679420581 321245151 43642555807864911
6808425 993137207 4824174429152080
164165961 835137667 101837128724860256
529504649 470977413 76652820044728564
260731417 733212818 9890636292959112
97821352 902051415 25389212850371521
742991313 261163781 166214403194575136
240069553 754127569 42659570149040780
427206355 567680038 159345477645700197
914974641 87441807 11997601528446120
562478973 434491235 56538887908800738
736657929 267726211 107130932941877572
130384715 871387894 38578394993953759
353080254 639438899 216924956591758118
216264253 782725765 156678805153209623
438791019 558337537 145743728257178662
309669933 681343125 207525029684984918
348657536 644097425 106503387333349439
816848425 181472519 66257099501584694
605040555 395565648 172350355438050612
148699597 851653465 35376801554157066
506794199 495003754 146905825298600057
381775669 613218303 164016890230131624
329569559 664832193 13950904320688068
623542397 376891535 110963136715434312
64276207 937278033 44493834629630742
44223581 958003593 14367577386406064
278120853 715975059 181175967786305533
692268854 309858998 197329815437915902
374368805 619629944 181898195473050939
1016410 998793711 573704713330862
217776985 780773030 149424840926991731
795851425 203259597 158347267039847042
809929155 190848863 24416383150800758
664824085 334210441 141040032053916140
961421560 42827569 876315016966344
938107381 65854497 48907886548731738
791719121 207335393 113605334676267542
903344001 98177830 62022691159325253
599764711 400733121 199464578702886298
138009181 862978424 45522477447947294
916887017 84856171 4207010111278632
351866053 639921799 66432277997619714
271003831 722334817 87391772443734104
381212172 614571295 92515172168006388
666974833 332692971 82637130917908236
333755745 661024011 99287416611893683
809826395 190863002 124650622016896450
784784671 214173804 92015924686764234
310436095 680541354 157160694391864740
280268878 713809537 58232863217781588
883599401 115421800 1132203001373399
349663495 642021967 195620416420960104
723515101 281978046 26205470688549752
739679911 264560673 166692520887257272
611841915 387513386 223169039884956960
540184247 461384499 184245917264229806
961965621 41596079 29025935734899036
304718099 689241673 85568491560997869
647318067 351933949 41548878385325957
357355279 633274677 49839604357013756
691943179 309901705 152416312535810483
583062279 415056773 64789376947141180
703666855 300078257 122467698158302060
830894224 167884869 86470721718881747
577659647 421976489 91060765650780912
941766753 62621465 36228664938930892
10189881 989191932 4489536934724681
826751329 171144557 116411102833443400
952757574 50085871 40312358055403009
997860429 1987349 425070533670486
401083515 593220153 26689497694568900
740667869 264149940 153365480309533542
503400909 498879073 160352344586735519
835614213 163581477 122143140782318486
985280872 15743248 4370008235822839
893054863 106402349 83545794301152955
603311443 396941117 99791311770144368
314886366 676942097 47284381223248585
430642559 564146567 224351131559643634
411618508 583339425 10835862809900025
800238509 198027121 152755706729612612
870506149 127646641 67260654622275293
318905202 672932011 26582622565624213
108552155 890648402 59310977538701325
175823911 822238233 10045752623895294
616461129 383780336 216539169648785874
23355279 978151731 15378996512539804
586640133 411764003 104550403676812741
431116580 563209120 60288872614038469
830408648 168729346 41048460994149474
416164327 578162785 178048691697994141
52977099 950151594 32606450260854542
437390287 560243393 142854402043492922
615852960 384622269 196787594264985904
896675722 102922689 73099113049772574
225353484 773430285 151243228517535277
768387970 231684561 122252120150338133
495186419 506996631 234260786955051365
927464813 76235725 52979899850514590
957011893 45303893 10896307351965174
463259148 537301893 8535550342603578
288506829 705664727 172245726352063100
372319937 620897393 129228103465564002
141708547 858860153 115874638925120908
262914211 730388609 43442417421838624
415197299 579513645 169502373101855915
414129913 580034751 19062523204268608
249320723 744322186 127743202865435517
236922759 759693725 47969311832544814
983923773 17926193 11291449755572088
211420739 787349164 11010675671108078
20756311 980167284 16912023745381953
748916512 253661116 106044614253946278
763130437 237087055 17492736950113688
316171543 674714347 150973507720963474
639187861 361080953 181073740500105280
501515457 500603496 169699024803745821
80881583 921183009 19408329500799171
352039709 639833289 4604581524158385
753432014 247968303 109873755866504190
269454457 723919369 47265199706121048
618436498 381439669 208346490541464464
756366943 242461645 252391664284414
992410583 8842316 220527709278225
74623585 925997662 24333430667885532
860435908 135875619 33864014950038061
545278819 454623811 107314271037502964
114473183 883662164 87424666061989225
601744033 398310430 188514813697988112
821669510 176089329 141171953227070455
592505849 407250407 33975411875705240
850477433 145968829 61120402036167857
242752523 751706709 127308089675250358
948730119 53186247 42735219220243619
744495517 258224129 105380735334354036
423745213 570876677 172058936234832104
424616377 570375644 187080993861225257
534747331 465877599 242564118396110374
476171896 526397961 8224517123229831
942609557 61206984 5018158954127285
909187273 92817282 26924622618906259
673706485 326684689 32070212659142770
735130580 269766446 31187713952960044
265864519 728132030 124871817571476100
578398046 419930625 186328616409411138
38906061 964331000 26183268036557821
853390689 142533182 28741407073932380
590516327 408353196 165620790600476743
179327241 818993516 10227095036674924
936689921 67141710 27623767935314152
893683331 105720513 51138107910483996
221040057 777841056 77377697947541707
35969595 966604983 14948126763466222
371987157 620985345 225531821535634756
975781063 26351449 7256448824796435
250420524 743332847 58112163975879797
502412113 499655295 80223222200621899
393838100 602439598 138528083693355124
329278563 665249221 60343441239516156
212905687 785921379 136292353127235
66960332 935341593 46780390541729523
256822035 736853733 69163259093671477
591440958 407854577 27903472048484367
300868836 692478433 181707781837383828
435370345 561002461 38288695146461530
519200139 481435129 181288706052176274
465422817 534815635 104969716509019272
774573487 225403364 67662838237397310
512765796 486636041 225044512256507700
129990513 871963983 107622956622195525
301994153 691244062 190395416002278719
316633717 674312445 42357180887851279
239388181 755812809 90180870568268202
236094109 760523261 123127983254535958
83950625 916780452 65784711595119816
778644674 220934465 154642084588993474
779751469 219562313 139944261934135120
423940889 570723511 69228284671933943
936272624 67649341 31995823393887477
454370141 544469413 132564760300909268
660437973 336574897 202416220462713005
41237129 961022625 37271971735123350
585131079 413491179 65141245637140218
206777441 790655293 129116476429367670
177197657 820648805 103804503752372112
723520437 281878305 106795350685065946
99770433 899500761 65895990616279968
930372979 73184135 61293021332811076
470084921 530212585 236711227101618418
876919442 120485557 24368386744813991
945716507 57198721 29349454106215398
602195677 398073814 41258950495821110
742139566 261702255 8382107066888231
14804904 985028537 12133408906938481
974895909 28087261 10327837937449122
669783455 330773073 8532134515337964
835297579 164013389 31827015957448852
254206215 738385586 22688338150854030
567030325 430570133 220659236918188079
361376486 629648377 113854238131849264
639477857 360162266 142548664099321920
558482417 439565075 215858110550530016
858468006 138451686 113470686074066487
86710476 913757960 6872495715146669
126393477 874194097 9087611720420278
290470529 702416642 188849743295696491
378784089 616475976 1221305325269231
657881286 340167753 2594625724398474
290457877 702433709 99767295285145356
733258646 270948627 85333478091468309
593351241 406641609 237122931342270118
760827882 239132267 72837758307472952
140689797 860680798 29822433020845473
367507039 624316962 18582239117478089
643813993 355019167 32701909273444460
465277626 534925059 173775265440196369
840302448 158286810 70634674901367133
670501169 329764361 179618352476302684
608843975 391174501 44084111953970042
706801592 296978166 137538647760078669
445190625 553617232 202676774107988023
241752553 752716387 171420985879211060
826474007 171505369 49532707480009307
272800485 720356106 184541349331462591
955481919 47614301 6811231380632790
667455663 331679921 70634971930977230
12084679 987931945 11690467288232864
87035167 913653597 28156620802812090
90147954 911350769 33527200662456053
431102307 563230482 120025345525655671
611776699 387523095 209421810013925045
543370857 456622813 203429074753077067
786076371 213017117 18170994944860669
936276609 67388675 32176812564810704
744003137 259595368 17299879602558625
148233611 852370610 68621527716690917
651889725 347371813 63450254108167412
73977533 926456513 10161982569991059
860199233 136236285 110658847244636548
730048257 274023441 46718393686937136
493621105 510454535 232097202735991986
96336573 905106746 79600649693358571
810512338 190436395 136546197215707425
936577885 67152512 33769886844304125
389836671 606343113 77385445105558368
319069319 672507358 121506396144601877
335647671 658045553 62662005824105728
678391665 322500797 154633679608550414
977394649 24218964 4680657327616180
973395670 29144779 2401675885746818
736969873 266897244 68129152601026055
495884551 506655200 200102785062181852
214251110 784089917 93818783031241922
199125259 797565574 97747876834556494
579272197 418812010 4674849676854788
872874253 123566937 83140304672104384
399998275 595167745 236490875735360824
568016159 430210329 35988298663027068
100407333 899168078 41073774044033149
133607204 868651857 73151127033118681
92769793 907434866 56689094496259560
994949373 5734351 1809180496004010
733414993 270763793 18317615267551604
310535489 680468839 80063665188447137
414017797 580517601 231837229615482964
688498463 313687794 49425825854274731
471977033 529448105 92847823634220862
163603657 835855585 100376158752520378
837164889 160813315 269056144298840
808913575 191255073 64140642854760972
775645411 224115523 73467349337611954
510559667 488720077 225762891724816080
268139469 725516211 90324840828697344
695118625 307286393 209694247721370096
915812335 86626452 58151183718717189
92929305 907356467 34832711500464103
657687711 340494845 32519692249129374
300321095 693534851 162127317681762318
44895793 957292025 6281396221845814
985983681 15016347 299410069267912
628980417 371076168 49923852419223115
526326453 474544819 110608980516502918
466148745 533661711 77537463900170144
257017739 736559762 41485968754724187
104638821 895973023 47361603621113312
648417374 350782977 83525840331236187
166492745 831780658 30876913102556283
20990963 979782231 829951156971520
905692556 95727689 75058278057233593
417642471 577644300 188274279164714628
56844099 945386633 6136448289738895
249636465 743880647 161576994357259044
171251932 826958289 32995422498452509
340381621 652968668 128317950585237822
754586377 245615306 109622061338095833
152636253 848524885 21118989655575913
681177233 320437678 197269373541315818
994480778 5953467 5268770803223978
29297703 973111441 26255170293849046
580282341 417645065 180963130667176151
589117485 410730855 195207299609991434
671933314 328208629 198146073294659196
255371213 737928987 99804085205651710
688406015 313750670 57007893073512954
316313957 674391404 83466020246857949
334638795 659414795 150922048427770632
295538789 698537425 115616402590983912
526278451 474574383 47404219643593698
598919681 401273323 41463915900386398
664956221 333524957 61452482126022146
869085969 128843098 12794573178537483
112238431 885943742 32044872402582706
195614410 799735853 98024506112937187
198677725 797929915 86518514743537648
111998561 886798377 41253430831785648
80046227 922136802 12662818342427801
677197378 323873744 48569589090994747
489931124 514769037 3569335193388504
21996079 979396873 9231388677493578
32432693 970711777 9968794761759242
23892035 977760607 11201716819415724
356827585 634180119 111685249020063656
307822226 684844574 46201825840146490
984013289 17877457 2389110370128766
664851029 334144649 38121167045100422
766895587 233223235 43522633265404503
776086970 223758658 98945400301515563
462799504 537461778 186135557239742198
123981021 875956993 80636765734859773
407786899 586616770 55186306330793222
315787409 676208666 75022397427733815
21811 999919487 18914942550886
227423313 771932598 150036697370683063
246646243 748092752 94962496266564069
44109562 958121675 40310269811606994
999224481 714801 231368135413858
529982953 470177209 65986730901017818
207025645 790162803 65613791981266048
639441533 360289937 131467250321636882
714702129 289025417 156395870619905884
199746801 797021411 158584049088900266
435782327 560755850 47809572419142349
877339389 120135475 48450595085606765
116344195 882167697 21065521662257936
535208595 464918529 80017744349035206
695919478 307077473 153330541208392229
450830681 547503849 68731974636672172
364150746 626581151 94534654819971052
650395071 349862220 37021679119158519
753345761 247994065 74743136701580066
273633655 719277804 89721484023685525
865401720 131026115 93702832156426555
781479661 217764316 134980047896100510
539538891 462408041 51011926141576415
962928001 40097501 5545021588425119
882738731 116386505 19162912352479169
556141665 442014657 202206113390265346
285376920 708849729 192180749104894045
684384199 317525506 29595324573180760
450090543 548437073 44403756437455618
147005724 852629553 97907263147106026
967283261 35410063 20513772942015208
534499964 465900981 33323772606275065
784882917 214122633 39068296018444924
971938255 31188817 12863160154484640
324327457 669677145 169374672263901708
476440777 525984799 153002680111392052
397176791 599108997 189350374522471819
609539961 390361761 23559954937916528
969126089 34129681 23316290726883308
254168073 738414993 79118215228922889
739413587 264948601 63656034457808962
298118729 695906245 74120044130462078
55887351 946624520 36323433208742406
526704313 473676033 76222117163990913
989969315 10898643 1159965791662561
405330913 589220141 121565335844855836
267398637 725818585 191233495199181023
518228637 483133141 209793687494149496
695015145 307300382 162901370212890918
560228093 436893622 74945745861060028
940716973 63668360 5299067287009519
515324611 485066689 244663855362228394
774173009 226597089 78502317168680571
932659832 71219500 44556850450362445
943106157 60568193 45150143420001776
313914077 677942197 140168255160600271
959902721 44393061 26172856392809136
230824577 767265297 58062249778176308
971534455 31281190 22589355157127268
119400212 880512493 91015382647277932
41604872 960704095 28655584650554362
744039599 259414169 163147085843487724
540991073 460518977 183383826690964361
370601481 622516283 47521055370153503
366747292 624922974 190271337336153332
986300758 14393157 12409661844790483
996486627 3374213 1946431257526234
842165036 156167221 44190352054519207
605992046 394266501 148400647823379071
302755948 690207913 208547840212012422
789706003 209425745 133353130205306202
989710317 11657455 2460677780886586
562298705 434543585 24109819242967707
923303923 78488982 8136743242731430
432089514 562709009 103623205644980826
612748823 387131003 13741325868155762
865182825 131177047 74879548066942488
614339055 386331770 193201329364358821
707944294 295296835 158789065803792737
756013761 243404689 124047881033277084
867646747 130138166 90514113937747712
902651703 98295661 62334971721882132
294368107 699084757 177399839765468262
271680713 720797929 194149888100920026
243528000 750998953 5412240914884103
95248405 906278409 11055208884299310
529670767 470931097 9186837154545179
692959855 308607351 41166665572606092
531519105 468467285 56733640177730202
625482466 376138660 132648603652505513
966385025 36643381 15371217655388526
339361437 653877598 70669425922228764
627418438 372405419 10298854897522545
667113377 331749573 117043922676164476
773729278 227200200 14241145851392758
570636149 428639996 129233877402916994
18548849 981948633 3898647970657436
173545892 824070675 35390362080589828
855902313 140374561 36296088511495714
489627037 515134818 136901251175899260
86680294 913765075 50324654420737724
818499643 180341954 115121587887807630
606697329 393014525 172464632504966749
730392286 273181761 61587696514728888
875452289 121573870 28264281086930076
398592613 596905734 8480219833826281
460109624 540045756 197785136443295337
476647955 525843953 241622980548805356
159748960 839076063 98636190346646989
722172961 283804343 115693550033580988
77606121 923389313 54717345629657846
707589473 295929562 100980960346043126
382059583 613184377 78366146516090800
310344757 680589435 59646476791687176
991044861 9227082 901141628709237
792116539 206626753 123604201573923628
610114081 389174191 168253402523377308
152038697 849067815 112805798670319576
638667850 362295141 198417745436288920
244532273 750082956 109896871424286623
121051813 879574483 60378088559402361
780877577 218307075 30682692186733354
422530934 573006851 47598651636763053
339962397 653285547 76946931340284597
925257353 77380708 42224058278857815
229567748 768674557 54298666508965695
953984759 49033989 1947831873735181
230086007 767876121 10385861392711083
772737722 227618917 87784473731665550
970794493 32831721 30105457668582516
25837464 975768613 2464392503518160
725172729 280264032 182214108375074646
688021639 314162449 181043164802264810
283906437 709713911 54319408695714220
579382351 418737725 192562035259365216
129016621 873248159 66360895729043344
41031322 961211344 4660032150181851
129799827 871997419 49178966786405936
98662457 900385473 64895347892508859
22398113 978858845 5356018250106724
940077729 64595799 27955449374388720
308894369 682906004 65187207779022932
571371675 427387847 68207999259977706
444173473 554324905 40905086209150092
765125978 235366879 86649824264231848
898710826 101053452 88489047660710059
133614134 868552091 40826783697069785
545559517 454264224 193570263889165929
423793761 570859862 217845841865673462
346532009 647779038 218833006055269484
170906172 827157930 70592540677222640
433691163 561471294 143928680008334272
164855875 833677777 54222611934128932
628020545 372088677 120031565858344820
960192585 44361913 11203134409100670
736809222 267225169 41463256921535927
195422425 800036640 53337662124450026
724132365 280836149 28343942347122464
404186737 589529658 134357533486466731
61738201 938740373 13852966421434717
510616289 488703063 152750809054475898
809598944 190918653 23648979998692851
887294593 112055725 2426485480729710
276757013 716888086 84277892072344573
975620345 26849957 8188267294194224
75982198 924675134 24567407958773349
804163017 195385235 15923152662724924
325786465 668030847 166013026195421474
604554767 395707437 166512572901863747
859842541 136821483 9486153559388244
579934289 418207273 180911891868246102
907336497 94016369 10750086533806785
586024948 413053596 181883882344354710
166605276 831751249 68241846664708595
39859728 962280597 18203520858281554
25982771 975721717 4316033523703448
22029452 979381641 18455338409478501
521492545 479171880 166201310792144375
494117873 509765495 203717811770890864
810384656 190471745 136386562339483316
970665006 33087976 10101796470697683
549853314 449251345 165831136432997243
445957943 553054691 19732660237844797
195210149 800816289 55617742687981672
809862121 190857432 56565478381372212
389608229 606395709 163466066386339930
648458924 350559297 224344350446289892
160417591 838697947 16890849116208062
732784171 271594619 96105676189631898
590107569 409138624 138262694852829885
185800817 809417055 80226559053670228
336923021 656655441 29248670899897495
844239891 153304471 63847770237058744
241381569 753447019 25265983692698196
877287119 120247231 54809595560106780
115844579 882687281 44321829543111002
816675975 182138679 130739379164577064
926808537 76472549 9173908616542165
499793777 501725438 250690891538216956
558626464 438788689 3141476592234469
610787439 388006437 63593371806265208
282354033 711305849 77593980326170488
14882967 985009507 7193714974342820
451754933 547104897 224678729911211806
779805108 219471133 65379988272908554
236319535 760257517 75612872361213458
688350768 314029473 134997951574562332
105094039 895410381 46072393573107319
962558386 41104505 6837193011362740
548016705 450052691 53608583976376420
923564012 78167704 29748515825790853
20915174 979807133 1445711574945495
993932033 6820641 465451857645806
446493622 552906487 4755302540997977
531735685 468335509 234853469003043502
1569701 997566429 205862848627404
946280231 55676673 39503506846303934
757203115 242121289 99634487585617384
833756503 164927057 36965956095688034
261988409 731611139 57547245832833096
164419482 834002147 66480972679380147
920584769 81418131 13129451813970659
31037329 971819567 15771430618620761
55870401 946678442 44270619947427990
333811083 660977465 187412265087110810
376280503 619025726 137845339796540541
333986502 660585012 29182121675341839
522625429 476978728 149321293784378293
221527834 777082877 36552566097724444
681459089 320330204 182963933734607984
653428289 346270553 119301400002326102
135251041 866744766 98609495524388914
85134054 915291901 50090634723293200
333111030 661213265 38039406643663420
262818037 730447205 75700179906077244
881023495 117283810 18641042371244
576369601 423172866 178574874197304428
120647497 879983093 6328003175260619
593680459 406475919 108287847586948354
865184609 131116959 21185591288190228
496739824 505677999 148494981317140860
176757633 820888320 128234962885586121
824069081 174364665 69652295825922490
639622187 359898155 52026264636233500
581731553 415749297 184831879580085070
246780883 747985889 38990963111131712
719099130 286478113 115393025208434084
448767584 550039641 246578712574985558
196635177 799018041 93429696700857218
222668337 775413358 24344865165775673
979596099 20906037 19483329345702171
423378155 571149729 83632360554093590
831285233 167720405 19705730815081707
640626167 357977555 139560153282337837
648344661 350818666 188696780527209592
14704237 985169057 12318101425488648
840115321 158637824 100775671136406989
351264207 640456500 157095048485482344
121151157 879406203 325832750650082
60994025 939272271 17749687405485908
610063417 389665644 77502125932827094
596959778 403214167 124380739721032125
341781417 652414083 222166945015254236
573218039 425677161 167793110878319200
368638870 623528941 198934476339341085
552720357 445534468 238543795803804532
656245939 342433199 111180398637718594
724708793 280717043 768877011566344
152007240 849189683 73678013163537228
197312065 798949732 20712913886308071
406763091 588489025 188062175864213462
67013401 935330945 51775743865136045
289764491 703436993 62829965417010567
771017489 229308137 296757552398992
31459083 971468245 21479134832496148
819053946 178609133 80516531797235450
289193393 704927612 10581622348105889
301728761 691634059 21869756269619223
657203729 341741240 5973638009863369
834687273 164425057 54061322744405221
753987531 247083083 52212626221384377
451292124 547361927 199883168262439170
706761139 297060017 134971077821788170
748154261 254576568 162050173030300632
273231959 719885405 64367651509057014
568693264 429790297 155409718102016465
338189971 655265777 186717685500152162
977023261 25268603 16428475484695415
960220831 44321857 31126086528185611
181661834 814736709 10849481821587911
13961373 985509398 12023781811270961
480854991 522759491 150335720701513498
626332703 374332843 148861528132499696
478463973 524904567 86052402624215080
58282649 943212197 35832978643226992
713876538 290032676 171314648968061973
411421778 583359849 134820006308323573
957624165 44937339 2449969426061752
145405777 854475023 37728077547426974
902279945 98535560 8491312316046446
146449074 853198635 23577039600889281
39200679 963827429 9757940198305130
696465097 306709961 96612904832187542
222794421 775203631 153829746902161856
310600193 680351518 100939090370710261
738366915 265626112 61404937844498275
329502582 664980833 126769376214394676
237993593 757883049 57126041901048118
361646141 629123107 151711514554231716
595371009 404681751 165954989836754292
141567761 858936825 53435603951036903
890185839 108904626 5478956301168140
752920666 249359429 181623839422436398
819943187 177600485 58298809159160123
131672503 870698677 64620087114442612
422906685 572064135 6808183359634318
538266857 463388408 87879615622952668
875584340 121570917 7921513867529427
422687761 572427126 136935067966631112
425714884 569476631 178602389454583256
171140417 827093641 4197578052385337
844280803 152451432 121285445596151086
535979072 464670864 162728713397378388
670328148 329972161 217052543333476487
962819498 40472551 36265754235836356
728763261 275648594 7423582484187727
806159407 193155713 24711171180504804
540382558 460887473 147666814628814005
695722273 307176499 70459464164463401
864793587 131827090 105452341461410481
906392721 95088285 4136841484180660
375975799 619040219 14170552274253074
760625145 239497099 18331099655251558
759830177 240604294 160117555244718778
454171705 544545455 45259033393784734
409788544 584324277 218319097099776129
163818630 835602228 103607207703897324
516507143 484203247 98748493374617237
869401411 128682945 54464919687452822
99443241 899551339 14172489098476578
157544313 841689872 33377779303859833
179140881 819002943 26119396739268244
469401620 530949733 5836463242168809
279588079 714242735 194752011936278090
853761609 142375064 62994019239575058
718716369 286723999 120158335803997899
929144063 74863013 25543007078822220
912092929 90219764 63820522133528348
826349293 171693830 60075300784473249
493148759 510909953 155905679356169616
877017523 120428371 102262307085265512
965139041 37930277 33856796945207070
234859854 762182433 53425436944815101
35676994 967639040 5921218175819187
569162270 429606585 40759322153334739
49440957 954349129 46771001329614214
450690655 547586315 238915654190393686
988179481 13168033 9017675991646124
27138517 975447617 10192305321832952
479500854 523606183 219529880550369567
926654081 76793943 18736064816823792
133242828 868827046 111343354517037220
839774384 159176709 85938630202161393
978894956 21423057 17524421776538802
580099105 418009542 209752603079392640
101863349 898623828 78224813170062269
945585397 57793061 21920155761820470
483185013 520333912 41288344604329166
771186737 229160747 65951271062597024
113504180 884325995 50815112531946545
243188105 751418392 154937510061755226
765317849 235210694 36137716022167423
770421961 230078491 133634967059322199
465744883 533895175 209810355350842084
253941825 738826488 96516906224027711
71457119 930965858 25995018925480392
143215514 858055063 26433640600014361
276278507 717258873 31443891758705664
568596737 429948201 103863762194500552
530389329 469805925 101463794552972173
985160953 16066118 6828538009574772
793813301 204850681 67526701164733434
822833736 175813642 60157207270902557
144954205 855268769 86542523463663673
425842529 569038579 83016850228217127
973750325 28718635 22624395018867276
917933153 83161097 38234196764593111
349890254 641314401 129548251460049624
72707012 928780455 8129252385161608
606115955 394053460 189983518239062303
236931692 759688932 124631321050159232
392370565 604612705 30889511849216789
304359607 689374929 118366666210763648
719106753 286344013 43259284700005222
687711985 314789581 9663369901339016
180312941 816986875 88262802702508278
984595839 16504981 10961537782010680
994503137 5898580 5230193847503443
112964540 885102143 14963388769822547
572733457 426030513 61936877247702226
823462823 174773695 72454969411578988
256523993 737573496 139948872448918294
460201529 539888162 30317174195656199
100216007 899414631 20204888291294622
299788964 694495501 66201976088938616
882916730 116206050 69600375950444943
882946961 116165085 65331697922571046
784367545 214252817 91357685682293365
401036365 593316487 114862831995505686
5107205 994812951 4947851722634812
966616148 36156063 34113159467021045
496394369 506297313 220719523568896479
402801115 590751309 112053459230596924
275157845 717845937 84507774321209115
729129071 274913017 16336391393344984
679462692 321224793 212534698878643040
808745327 191405473 106715333879079248
798892586 199786069 134471850068199897
6265488 993942521 2777695313839526
162933515 836160355 58367572250380040
82768840 917564223 9147658274567360
849937433 146498821 5863950245141386
849471761 146962405 64778542159496761
255841760 737779929 41640286471666240
887071923 112691716 93857504308214434
815190517 183997448 115097077288884634
92298857 907668659 78228557178794029
8668153 991104734 3402192922867214
699175428 304889187 144889519658036874
872048157 124935513 4904377970645458
324856745 669346495 84389469393348584
370677017 622391276 72206586336575499
506602401 495261069 13652722728250254
657253377 341436425 117648286247887916
453167847 545227705 239401661204099368
494247361 508808941 4623685181640564
972043069 30943669 14955673275995445
24539521 977571469 20100565279766352
34602531 968518289 16971883889614692
657812356 340329653 198892749633732332
406332597 588820229 86989545482560831
526171099 474805195 112234838651483846
760873331 239003074 46484610300638611
849432197 147011465 103891652916067328
639796772 359289755 14508259441190776
840452985 158077545 68354988641945706
42167980 960038208 19526605514096073
605969926 394345651 200639166381577199
993090111 7777793 3294279863953984
885967997 113402703 14617213447719262
700944557 303231325 97806375663440382
636039761 364220186 213964569320862576
706765068 297041484 78006908208914608
566379537 430794785 239090327380118374
977724546 23573067 12158213378466698
909987645 91717542 1444932791405293
891887435 107730561 42512721378050116
560375945 436630792 103105985009464429
867700261 129746612 3060709496298807
513618013 486377743 73412849954675796
903873787 97899513 84605883540695440
447323034 551952318 12678378424821083
96075721 905209376 20423658768830456
215577370 782928513 36002043703633025
666470863 332735032 132248563280973660
476497897 525922909 28260957303721698
727604279 277559050 75421677800352323
471110219 529876454 166660904697454497
175994989 822019085 135408685723932560
558742559 438785441 216734025099061252
502790569 499477185 145496885019261850
791402347 208238135 65241872835415632
593419195 406558449 19606619048436358
740937703 263708586 109600610490053559
961793715 42396301 18030316344346575
164264639 834153334 101783458722972661
880371215 117847023 22352741104108758
344803203 649886624 206984656401059645
941926199 62126225 11129186759693252
125302044 875358641 18752750813353248
150059284 850490839 118416614632586804
976368819 25742101 4191091364974347
954628551 48611825 4332375960810817
594447345 405429809 5400705228552952
736119105 268903733 13959646010090972
888457041 111600161 46137601113776290
555003497 443096286 39947240228275767
799906229 198870013 32735138752486638
61583504 938810689 46165622957821903
373987561 620216111 109364014918543976
591492125 407807897 12750416339083210
939009887 65145617 48122460012036890
818787410 179909668 57718165626797945
500284154 501081907 145782030588043528
82171245 919728153 66492978603541822
145450164 853993525 104439160361626171
335371193 658512465 124862487209148746
993234188 7578293 4238571683581015
734365739 269973969 17366428050535778
344391787 650301219 186245562715087278
64229384 937623073 33026323712626089
859467581 136831540 16206453013915146
727520843 278148135 36937684180513396
553588427 444199227 40559164575424026
615421925 385366661 53192012035516606
433607 999365129 372108683584056
297072194 696899125 41748731345977304
446469936 552927025 181379163606511071
874609686 122651517 38240034496574831
332437587 661356293 143362859867463488
956153393 46176238 12899708370529389
287778357 705876059 66126957713268584
509706035 490081349 123097157170265940
361459027 629433694 119363593117056640
375805141 619077948 136349646705448722
658496120 339382118 152161215024792650
463514845 537063906 187851635477590738
550813969 446295799 181832685286689098
268556324 725122973 178910067746982026
497733741 504291183 140777098513813120
962209693 41232659 14654695922555621
783528321 214869508 23327673485478825
225599167 773315861 25499034051544632
633536190 366047813 24313757501093828
494119740 509484695 124977433038007881
317306585 673838041 59842212176091139
271210696 721717607 37135471397623237
786314591 212572523 151854921887913648
879173815 118548871 101064561063476352
309227361 682287617 74518518887887141
803983175 195415467 122193883156841834
321366229 671375257 182067042282005498
647845971 351785935 101694986737845222
305998781 687082809 27864302956193604
63611541 937916917 20417822918407858
711525582 292710154 68569302669563874
777933522 221874036 135513765106355541
331648773 662757161 3622908680933604
883154777 115893051 36016895975272668
392472945 604227085 191391550674528535
750877533 252081155 94427380057151606
506575069 495340007 209822042177608425
894541816 105362485 33122083035164457
453404825 545139433 174599985434320058
258718183 735377790 40896739655180250
942166909 61527841 31967063872919130
564151073 432674933 152498646348015888
601393851 398402231 107990727746797909
540076790 461481771 36477999764757544
110112481 887631793 21221022950981068
325437977 669150361 114934602070345476
501223907 500640754 19232427776422826
543763180 456433740 93212500726349142
800201005 198391813 136843850959643424
92226933 907987858 38643002336418949
904963831 96494273 6033796923849928
201917257 794565657 103757849617050421
571823738 426787609 137916236979423611
237823761 758014417 96307005624899979
971256944 31895433 21104596203290344
664280505 334417924 38061082285040462
345052753 649373169 219615392703056102
398667973 596831802 72916735697583866
786637237 212403297 152467280349861116
637567609 362677667 140281466899820808
291228533 701952977 11206591565558280
51072305 952247969 5753850125768900
384501756 611983249 80180550899585464
229322220 769520740 90757266754490522
105711512 894445195 15755222331565952
846666827 150003771 82681872168992597
974716481 28165840 6262621366794354
471594304 529655772 169942745157505429
909827355 92285667 35798484756928762
827507225 170404137 24219334860040013
466475985 533322513 232787497878318430
403010729 590603599 225938214885866241
867042747 130730200 90225761547342770
296965622 697367021 111230781544274452
601004485 398704108 77323192960895904
358134585 632805660 15010982209941008
592303369 407789935 45521490670184808
168394981 829948161 38151853983946358
563200103 434041357 153255552822779422
472222457 529357969 10345862024503537
602252065 397808637 221011532211533202
112623363 885415243 84569708632771000
274247051 719074596 160363423095020098
990306833 10364972 1530681099869408
4634764 995247641 3136536646382825
498078781 503676689 70221507516658943
56839358 945630064 48564511312649685
804232894 195382370 14575091424779054
521262363 479273638 178408665348037608
7956097 992101305 6838563760523594
571214719 427588007 175621998324494224
152296569 848926321 11452969670033592
884836679 114482515 51536655976950757
942745741 60944301 54195611112189985
236408988 759901033 97322751884408883
669987379 330083451 103369511355670514
31778727 971052289 2119713065071600
189014749 806238337 65691062006656029
938623411 65453717 37572394204048586
543244981 456979849 222950815682055737
633250366 366355637 60495368361268749
108337837 890742682 65507317058667678
812207105 187636631 69446101968063000
630919329 369296257 186647138830889039
217209687 782069600 41266211469297010
983839265 18070678 1724530221716333
966240514 36705756 30549672329448343
394140112 602196619 224619376408072559
701759933 302341381 134400146794884625
744236266 258852393 111212859529112507
217091780 782279637 121519482434898474
849391716 147190049 4389678292540213
63736645 937894060 30127980850230239
201646603 795403438 131997146253151457
253790203 739316425 182512091130264814
122504617 877519139 99430961768336099
614512631 385861937 115804245714292212
178427761 819809397 114676700232808262
238125610 757304598 50316038971418300
339630849 653462352 199403409305713279
840071145 158874691 131044046057071892
903256528 98191419 6383179033050882
215210470 783415481 168547958115830958
281779173 712209069 33376392376349779
757705281 241699712 179023849243133098
494559553 508226905 24617882950186092
54970307 947655573 50291212477534570
582932047 415213773 177878851632239464
432133185 562522991 197544053230395482
961803590 42226161 30175036784887875
190147480 805235709 60015615199713199
139688796 861612913 54491612092732902
946493417 55438165 29412548114914566
908475988 93502145 78987365322303844
417345085 577847450 81560798764533584
89095571 912027067 46615473173480648
651667499 347853929 42400318972519386
8057737 991453935 6212005322585010
735404753 269360519 130922459214233077
964552545 38758435 11982739770429800
302131473 691128720 1827751386161158
600506433 399569244 217593049029887859
766152691 234847760 34362153886290841
759896985 240529933 98586499609727288
655941973 343471109 200817589029965470
977908145 22733371 2436146071577262
731664268 272635971 152965027041238501
952171025 50771660 9542687027655378
116742363 881698531 30642196186077212
464574577 535814135 137911118893504746
78428705 923064230 60070326777583111
324216303 669704337 152263529909683080
449697227 549293082 2023964869356087
561053239 434962998 142240283019150705
144343609 856467569 58728014247832274
736746495 267654871 22637610610983949
250241859 743576215 80496757460036148
586464985 412160259 95722859778720303
345864791 648290623 198895162823582398
635404939 364827656 62666110862829934
5031143 994940693 3940014586995091
505083307 496874529 74952486021927405
620553537 378345465 101190334831172601
392052844 604734688 115616430666405475
884053966 115042679 50874378873926345
398291589 597327177 44612629856862110
889505116 110035607 35408306031607488
805015781 194826586 151940602359631313
397599657 597930770 150586776610732996
215395129 783183357 131356570023775098
68474290 933768997 5310250011081586
494566643 508202285 79352428836809742
630484589 369445761 166665958914755804
418870163 576704445 119964333564106118
940639023 63768835 44106840489396687
122761493 877350721 75937615515654293
717628349 287134913 47475720885387377
442649213 555847856 129031068572124904
947521887 53953457 28474346131117307
639620643 360008899 207921177621279922
231368433 766619325 120956751393148782
112186912 886076489 71061590652826118
558036540 440407384 19449227342260441
301081524 692048541 200611113422510997
610753993 388076679 154424319341901563
918919092 82466673 72702302660799057
642327426 356468979 173393107362101324
412305169 582154478 129581910347470592
233389681 763633142 103870421366285103
758553571 241361258 124015906463744901
174522158 823217412 67690144889178333
846040337 150863625 21604072313941589
113091239 885029629 29218114940210214
608256121 391837288 199681739915965561
533249574 466884845 91980130913982134
653498881 346237075 54295203839808016
366894827 624707821 32189433441832048
16882458 983087666 3595935291630234
951017793 51395251 5838451233715956
506651656 495036607 105711896576906466
632888879 367120067 201842299040508844
531831470 468183944 169191575967171399
305425058 687548989 104518217751512962
802556847 196688313 77971832553383960
547777501 450734268 147416356648821422
520528449 480453777 246968069533948984
204048553 793648489 141004081857857810
779037125 220428809 169378670181566528
812934327 186355986 4063103590941754
770541756 229939047 10985547276552606
179127917 819200645 50945458308766446
992984993 7988675 4604779239345832
590269629 408905942 209580821960070043
848931043 147451428 120680744829075981
420079589 574976570 116062606644989021
881218796 117260065 28991224634597287
247698981 746421049 140671958070375173
561859164 434622971 67934497700676209
354309105 637061821 128759790601605492
149375325 851412161 99123998477150396
670856836 329223665 121109961826602102
964260425 38990829 5370599449862776
718102287 286951533 23654977067091799
38513891 964743762 3767920562665386
279166990 714956543 104467685387857729
32297346 970872320 17898944117798880
285376523 708920396 174370597923696147
931325150 72613737 52987090405296935
103955673 897045237 19308068718940740
424070045 570672553 20205725208662368
76402822 924257589 30098756125674734
450521464 547852005 205960190356573726
583021913 415070633 18801251692624108
741598135 262334882 60848814748177344
2989889 996789081 2013721495638034
809007931 191235125 64988859903710584
146763451 852979575 73516786823179960
764795161 235710741 17311058205855272
922030479 80332333 22680713376786875
897694557 102502721 28978952134195014
567521474 430368195 186606001886468885
50256865 953281665 37111313723771414
468955035 531533275 39729651065254781
710754299 293000335 1138401355547130
791547791 207736334 119226741337745797
333870593 660884889 92297897740943196
734446007 269859672 15541200578563265
369517125 623039073 214760762807297508
680834775 320725001 160317652392614388
646237863 352301585 153563607678800742
281986588 711949905 12138779596718528
180201477 817006911 63682358038567426
708383215 295037339 120768554851931546
363763873 626915463 88029124273807923
436119049 560494002 66667709760888313
403337733 590283249 68559576413204634
145787184 853709611 117724719654219376
276219590 717397099 29677230354282824
349332256 642578534 153108330211732576
646357431 352297265 22071994292035236
106230068 893603590 49478646503641549
818464983 180342769 117788128238188424
719518201 285886363 176916085963011996
903415573 98166476 36741312426450885
543004915 457213635 61531716906562085
205618018 792025347 53385169071213007
678593369 321924554 157795060244437727
11686161 988209347 8033471327215490
961296470 43102929 27900461122617639
654876665 344441191 165489568591817345
965143769 37553445 34630403182696200
192191948 803267623 138623098909033378
468065473 532163185 211283935461497495
422662457 572507845 72925418265749146
975504170 27225321 2745782325550815
751611339 250555905 80268879660899595
423814585 570807563 222887327162869184
841903573 156314179 83115572368307752
325611230 668699093 151685255897924619
144145072 856750519 98085558269712096
985744812 15058117 8049323517963772
433691265 561409157 54941672522271120
162795993 836646321 101244810414899941
48718301 954483553 37475982654251886
648307676 351163001 207871080695754480
113459782 884359050 92706474438166161
286641563 707007027 107742188075043858
112098785 886098949 43260789463864550
785582525 213422478 10996343883641505
501611297 500598017 60459024153211374
407760749 586780753 205556484380963474
836689737 162401733 119041365519494900
223249116 774868761 76872944640559813
598797599 401804370 157695280289919165
509669867 490147435 163996468724105980
91413812 909427551 76937032017179402
330233613 664358945 147583413140977387
776588974 223596969 64041093010832281
114055508 884081269 100066821460652246
875903937 121330753 84338006227998546
145276239 854927581 81476331371880568
705312583 298672757 41396097762483640
401006315 593338443 44350536716874104
930625143 73061836 32664738059682826
187743077 807431080 57579682652184737
710653705 293169845 150818817778006546
203072193 793933665 144331227615775974
605663711 394837687 129539843840240508
738959473 265283465 97555227104215128
536758364 464160203 242062887238291126
193073337 802512397 117147549395312663
532229511 467769751 138707867858788698
956480044 45891674 26244156548784626
346936997 646942585 54570307965361682
976383722 25704777 11801722035629099
499847633 501595064 210526596910718063
220438593 778223345 37925567703416936
326670329 667607889 136755177369633518
625091841 376407297 1793367171665822
532430394 467173487 135585596845754776
677945434 323073141 4103575687316799
688579793 313483201 55244985982614999
522047905 477528693 139017291781247008
721735105 283992202 159495808634201005
874841635 122647027 54535252876703831
790158395 208679249 82996690722551436
105189314 894938084 14018780671764817
832542977 166320249 77067399110738606
658557989 339200265 174746360555403157
318534545 673354049 88271348571173114
225101363 773502320 169272588285691100
620039074 379134182 118632517905567114
560683561 435672767 51274845888787662
632971040 367104634 46895704837162296
863880178 132618141 29828276858281931
919279806 81919483 17770707293111916
715682625 288403129 170639608743327873
634729375 365237396 134601227186685041
347612921 646691049 124414093362410481
968459841 34425253 21697402731687138
263040936 729973551 152022678412992013
299470343 695221819 174718872502176382
64228145 937718841 54544494112155870
864447092 132343555 24088061422343366
290399135 702565503 72790664694407588
576142031 423577809 88253117133994083
203332612 793836461 91159254784650858
532547689 467115009 21841404845381190
382882757 612724629 103007716853734057
499411483 502525583 152947642289776947
304926095 688610606 200164304564822318
142727532 858248019 63263125916324679
237910705 757946657 106232525245269064
350206929 641232013 25971874563277128
837032361 160964113 96953480999937006
641853161 356795809 37999637532915502
992704265 8558670 1067301472592268
165496892 833054185 9084545661167722
921271729 80520841 38530528468492524
66921289 935589833 35442604995419238
133761353 868264753 73775208294247106
325113625 669196317 115415106939170086
831764531 167165352 42941464981810417
135594737 866012481 69539502617969608
870449729 127743700 37674961532733634
68676978 933741949 6371659430425934
752121377 250105473 110467641061662894
591307306 407930089 99640244867803415
460622953 539399681 175118953995240424
546607737 451961313 44724768310046238
17700392 982551789 14046479110759763
279313607 714700311 105927113834744248
904001651 97620904 56457464202209206
872898657 123485398 294884597764504
530461519 469693643 199701929283425390
359033739 632448561 18142944485277324
154856995 845769444 18281857025028932
904641524 96838913 27644773166877807
714912833 288426183 81598609809386236
997342885 2489054 563274731354600
659164635 338397192 179807441236274953
482455081 520773558 246851989288624724
659113708 338407937 119208293528229965
988563521 12753724 1847763872857619
782604211 216821769 43814503600224224
935839741 67909525 60427784066245125
758812245 241317569 68998974476591647
754661703 245120548 139833623927962678
174313405 823521963 41354978257775036
377801081 617883889 138908860591076200
390386871 606124417 173413950639607995
850547708 145589727 120252340026003932
656499671 342327518 167923980485851403
38956971 964219985 17143264025854720
531212059 468557829 130673641399872480
40751443 961559009 25640396567010251
457845325 541808887 83228442642295188
686420099 315830708 148181719465221741
233348969 763736429 5167643785343744
441966001 556106347 171186233286200463
442818152 555166760 231731796286514166
989494047 11832202 3081842996348803
216148124 782841277 129286398684386024
587380751 411428168 1056208030164929
300128570 693692470 21887201157235356
806703497 192967021 118171201426829102
892707928 106648409 70833049523795476
20897531 980007311 1714967197488194
496988485 505591601 200454431642783494
684548263 317410623 48747629542326519
465648728 534186809 122930864250494358
149436609 851320481 55934307601292640
754714569 244854669 122774429827954852
879608817 118159517 11416076637785452
183797160 811263977 52703958675944188
424815442 569890913 5318236275381875
812863611 186543953 92653467306654756
143497345 857308625 21260810684194644
13690256 985608350 10731066677393892
877212371 120426919 32245696911913537
398723629 596530369 188220479429743389
537899039 463424299 152676205625664946
645452995 353667345 222185423687577540
813167820 185952341 123913230515751643
191376929 804269809 113162970092639962
311575596 679531235 61362048995542020
336101909 657767233 49836182237522937
659364429 337729913 143032329824636628
781583465 217739793 108534331159883818
782309201 217477923 12342832834122686
728055577 276882414 119384549575284984
70148672 932367572 55569326281334106
578245601 420782275 36212977007925062
856731121 139602601 67261237013223729
870634300 127232317 94509570531602724
467133625 532873778 89698385304086526
497630333 505116171 107259030563409258
825260466 172794477 117042093411354041
414025499 580338271 92266145427281440
668387537 331029457 15824127805574074
795134658 203597109 94522640623721379
796939621 202263137 144112439639185330
19171889 981518127 12540425616230485
545752912 453553639 135592682584118684
529107502 471350116 30311628311407974
809509121 190932917 50083569164908089
72144493 929745303 53639786237212656
243834778 750611381 49464925097136786
835265395 164320097 39209658523493424
104455864 896531927 12963719540210664
205994884 791579524 36997240629361376
37239607 966223232 21057297903604230
851452557 144712157 100208791262737971
49594496 953915647 27185944593315758
260493291 733333976 71651225900958627
824687040 173782409 65603037176089315
662395594 335587841 208116043627299649
917237205 84116735 41181526425772466
7187990 992949707 2029691552656032
358918369 632709041 204799823800717214
933613949 69949813 33078119496163270
780378179 218907136 87893468831581322
394587563 601219770 177584230111654466
344364529 650347660 13247340675175678
208688665 789064737 68866998800751544
309968833 680764502 169716029912517409
969734213 33929701 13595431516534336
454547457 543527097 206330530483907910
867736513 129521033 106373755054363093
39699614 962961261 14080331399031456
53392939 949113019 14805841547847141
720373361 285090569 191644330044750558
604943895 395679225 32425727001767258
920656165 81011841 65869318246996800
452525057 546019329 27361354426866446
649826665 349938241 218543864653597242
704777403 299503996 128984146373149487
526212277 474778941 21427439953236242
514239159 485804004 82870244693229335
696406101 306718129 38174261312571933
301733371 691557368 158229859051723230
389599028 606518918 183666558788210778
563142721 434063369 127109478119900954
775071770 224617506 71225429133273511
526597293 474012280 141154674905279734
74456750 926085346 23936835056560489
608140465 392041977 48038969094728018
15072851 984433522 4106305676150098
602239740 398011153 171984073485954311
798451405 200434943 141628113307949092
427572788 567368463 35514367708254883
296060744 698287331 154399039138043519
247213373 747453705 83822867751154713
644005785 354767151 171112746507575304
905136367 96115140 72622658225207962
323037180 670415736 145235843101126805
813454913 185358393 18205292434122688
250945547 741981334 166382153914260705
307654033 685148408 161455319014989972
603240565 396959617 27140382401742382
121042188 879604953 39420034408974574
269105614 724817993 147818141095357631
871439807 125940496 88840374116364147
718379015 286747013 7100765723309931
140955530 860274481 103245194937862571
608952045 390905287 199983122108245772
172062001 825679510 128604387086381976
173440333 824087329 28265045033579372
774843179 225217628 151099537527986454
80177445 921236035 6002715757272222
678250094 322687467 208002557336405078
27887893 975013081 3769020675172652
52676819 950621387 3895556641392062
318278313 673714641 142724188352732490
187142233 807890645 129921254637014876
749443615 253098449 23827765127945472
230563931 767564793 89337708076295190
713287681 290608709 183570486359646243
276970489 716608471 98288872736448548
971406791 31374993 21455502998557824
600411361 399799479 61933799844082808
932990199 70097871 36045522621845276
684186065 317530017 112579218771850364
686645359 315681009 138744036372601353
848813395 147928410 50314584361205330
204668013 793357816 1419870937795841
161579136 836817929 48875697922552014
751848435 250416555 155264922907428776
476150825 526583377 64069207754273988
178980922 819270847 122879620959809589
511079274 488207945 101344605687371475
252167591 740194373 61011910109602872
680119569 320806359 138003352760048308
954394385 48717292 8683900038685436
484714531 517734761 218783742596594554
701514411 302512521 14687227412218140
905067905 96419789 58735965888033468
985386721 15681265 2705074493345548
864568216 132104301 69385329955851881
677742954 323174087 66727911000972036
17911464 982294125 1396921988286030
739750049 264488286 148055640405262610
412237441 582308524 212391366877539752
118823541 880778976 100541215795486812
477094531 525588609 8957940175938452
148480123 852147725 15061758709830054
758848751 241071630 86501356473504890
542501153 457319704 17050110259984626
775435153 224308593 102727394883670136
493095295 511553655 188867985105719023
786960185 211689905 6064262713824820
561077135 434902395 32658662887282828
364768694 625823104 226710572737170418
46163323 956357074 18015938994350194
251611539 740446881 150855965763266674
855797349 140669211 21497388434633032
177112297 820723353 5429082320116036
938321513 65738441 20971779996982118
607358440 392850873 39447620051398670
710324359 293363931 173274423783486600
265132021 728662039 96092857001601684
796456538 202540199 9324925329356615
346673529 647377081 83598894861984468
95952735 905437201 32024106233823052
178457213 819762433 104263986252830662
813858741 184533831 21404582320610858
897078317 102821179 83560322651144414
194962401 800952226 152616975002267242
69436037 933092182 33760649825150115
483911607 519371247 176082605755536042
694845505 307690155 201613076173167613
429162197 565561632 227855737221133318
652814494 346631964 146002498133083901
885674681 114169869 12322908848579458
860330805 135920403 78601354464523448
486394077 516689370 100384519523790114
602270045 397617665 44349800037610762
374822153 619430354 60084512843915677
779719279 219668789 5639577056837856
600348751 399971383 110896303347330384
957008689 45350261 21129517861561394
393173569 603656513 64184871921995242
791824416 207333517 119412786124975272
98578761 900577329 31469134507805271
450519487 547934617 84559232732330507
274530077 718678593 16619712682702074
50125205 953679409 9004579824433026
977595293 23623105 2210573633756642
207084333 789857935 141802674263883236
529840254 470720353 185076709053385655
177563689 820577386 119299720155179833
907724591 93722181 47837459233000514
796967529 202199929 137026481352227962
35571257 967961193 32344380687768334
872542091 123905857 5194965862857756
513116974 486513975 112144914420221620
451152897 547500200 73280347060828680
901615725 98765313 5018027956315508
105017599 895447066 48067797743438723
631245218 368960524 179431441673119493
210107357 788040261 95001752029251732
937273327 66580604 25904469845042796
967722145 35156745 32575694854502127
793238529 205240259 112200660648105272
693202781 308370837 148296983291356354
286213229 707568189 81650334490115418
204407230 793476445 102565503292856395
605897435 394404937 117334829923169788
895486389 103865461 31198319834906928
768640960 231191513 162388178487782393
528275573 471980913 154279845950670434
693030450 308406789 91616768162573213
413993203 580778233 217189195646758670
593259383 406682620 6390543852711521
163851953 835426093 118913714195627915
918976315 82375862 71492316886365788
162963169 836104239 62232701682071344
611284082 387778308 195686994527039862
141158649 859509177 120896101343745210
368557153 623807165 115151321303321013
696397081 306725456 206606760371240253
179569377 818640861 69010544664109242
73681761 926893642 37109470600935150
232030634 764986256 130201702258469288
677508329 323226515 7610598490792732
508625345 492720755 61129802101845157
623172401 377063432 174572368641075674
427309903 567679601 85353959331484983
579736994 418654465 58405954139758770
306683272 686598652 171683980286094688
328849559 665950424 162424920122175832
65157007 936802225 33716541147579794
983162745 18794997 6864487683874862
22829057 978622070 20404654688514948
171580541 826357339 100026215243480750
441321454 556786929 47183346199289787
993302085 7571973 3646504922455212
513528578 486513049 24443061182652031
905281369 96054607 32664439901499252
247073101 747590093 138565469954176696
797835232 201265121 84569151913991406
121903278 878915153 31806705021037064
840192149 158310671 119303363903110985
618876893 380670723 101571598718000974
379384064 615584010 207872620109834021
530154935 470102812 9948119854907237
998409167 1833241 1678778822455772
801591832 197501441 66416869681062920
169326865 828575049 86314619612828832
190782186 804770209 91074246801759799
182832785 812611428 128526834666530953
626773757 373866199 28484743424825093
762108935 238492685 70851950570273024
520078143 480953467 106347899408767078
45303620 957193097 22491482362909209
910798753 91154289 41747326155251784
391740161 605202569 31203333630904694
728835820 275592903 171626591598636355
8728865 991102061 4656482864175152
735472951 269343191 512194063536412
606720883 392988540 13104253900584885
689560989 312121855 209125756797726568
705410713 298627849 193923012129942213
912404781 89674513 25101365702081916
296113068 698150939 204148835452703253
695633460 307221515 50551535530157728
633432555 366212973 189392757959718210
161517927 837038513 70087185923896113
845937133 151181351 104824891395871480
291278881 701874641 8606323515296530
421813681 574116766 212132951282574314
265046209 728767143 191582990867449694
208914624 788907509 23983183576029153
211585273 787282762 158280285840914654
788217586 211228335 6342641391942525
111969873 886913071 66404379526829909
98087137 901384057 65180229725956138
803180485 196469318 52380598432270896
985243418 15858587 12560887149832167
913629836 88780181 80999772796887690
775494844 224218183 65540825229443747
101322613 898998123 13518325453396624
293340285 700009805 87420822327205694
323327873 670211721 153744588426735026
70467133 931856617 18769184637109360
949279295 52758780 37010450952145611
16538553 983283907 1023880282924420
984102192 17547822 17136739114857865
397241109 598679614 175699394669479394
393983917 602298113 36496212679264605
93893251 906544046 53858415484947684
27667580 975065132 9928284902670505
617737409 382970289 235973999303257442
610131823 388735707 32976527496651418
465699322 534150645 92436511124245616
547773005 450893527 60067744098707315
170156737 827509860 21746360125113633
346956278 646942150 208229785543526919
246793089 747818664 106156333845181312
580745338 417052109 120912402827845281
744926797 257862613 56608227070131130
52132725 951176833 19904675753900800
53945913 948580211 49265502892452148
165440222 833165539 39189320058290820
553544681 444237937 145884637587835188
936096639 67757387 52010772299449066
719613507 285733380 183996000486164878
60950753 939279489 29002510016453248
846804034 148846598 20650877399571081
305945723 687091454 91901050741415332
760643196 239477684 149345355224930165
748892901 253712267 85259643282864480
237491789 758782337 77154153690588052
798412640 200455256 45596122953907203
515949201 484749441 234360792242610187
178273633 820214847 85753018436245608
259867111 734373981 33679778724823818
783503293 214942529 46609299303961362
964772611 38605956 1091871180548352
28716345 973924033 25882346858449218
820817017 176760789 78883150272614208
270515795 722667617 131882591055147168
827512561 170366818 67697298568732103
107841393 890897868 4526258761139364
411716990 583221126 69352436062064934
434056177 561120758 45106295327352717
751936523 250369744 69293972280873846
990513707 9734339 1788899680002765
825300360 172565403 38071065311668936
973366675 29378219 24478955734297466
90571204 911294085 23750759764550140
696640780 306538937 9162606142899544
802916903 196612864 23269249588598611
753131207 248883214 112695982841459189
642510345 355883629 51347053554765586
415552965 579064193 154646589921640266
906280957 95379889 35922438538433614
928579901 75691789 58162848699225641
447211143 552082774 49441296887521627
289457820 704504563 194485938027770678
975550521 27034264 569439873282574
429038229 565830754 13856470084217521
131698881 870667624 73871836775958080
157167904 842854229 33804897460839543
577654678 421982373 166147189295850823
636820481 363441865 227854694019812770
443811313 554630462 163353523079271198
297280203 696719697 202348628566511027
291206495 702057905 100832916383281296
812446661 186863066 142197969598358643
201883344 794846483 43432013990206902
438100737 558575583 7708015569316381
494122820 509468393 196657955082808585
262950869 730122091 106846179336139463
337457849 655849394 2631121092314443
555832967 442180807 26329992632386096
715824807 288211653 89751245155441338
855610620 140709437 16197272395857472
319285719 672363121 169765173890310544
419310701 576577040 155916960779176802
907203403 94271030 58240867802118744
222457161 776271942 88717696087552117
934221424 68833153 7554389222091191
950631045 51750309 22080830413919175
319728681 672260018 149413928561751249
97335636 904191327 72244418468741821
9885450 989747053 9172734455527270
193553529 802286315 86335814408288349
614516827 385742180 154643836002312161
624909789 376472267 35713640833156118
975641225 26707965 8648673022768828
805683897 193940271 119627486952915248
307625717 685221489 182610066254314449
426117868 568371441 129850843413836288
403250729 590464097 194505581144088583
770452485 230028625 3901387775978380
153780753 847229913 32833538835498344
586598683 411800132 204624739290444096
39302156 963751553 22891886268435138
192061753 803737337 92916611309175604
74239947 926153384 12086088605457386
531951067 468013281 139818368735570600
269844801 723040174 112133618878554728
848790532 147991645 20091725209478770
796482943 202484425 115475354981916960
944475313 59385064 3416678944423115
170093905 827531757 27365008077035026
664542806 334356103 44268080520848382
83838143 917037613 60243712153123816
94561665 906328301 79278516771307820
639107482 361243924 151145055377324809
130042199 871782113 53040192591891408
479847693 523538299 117028516655080195
505830441 495517471 146216579112157562
265807869 728349409 57559881001075385
728873781 275226245 134989491838804042
106224033 893674087 17368249855182110
356275532 634545559 90190152977056269
204297926 793563685 101602773457691865
111943887 886923302 57078920543431186
76504033 924177743 42310841862423140
824671401 173811978 118576401846501650
412606225 581693682 101368103521415080
493960438 510332905 220094194303964322
413810553 580829155 72930206784541380
220077264 778584369 120810569863461602
142697652 858254505 41736533549315639
897029529 102875374 49298439915814056
87913524 912779149 72558371012014233
853153209 142775645 26436617963121108
121636123 879319925 85920965357927563
687154989 315247037 144769427774811980
178400350 819854844 127687731222202289
902580708 98444918 72414490016163787
279089313 715126153 2631055686298076
999856513 21363 18686920584544
127282481 874068000 34516257920343139
477505597 525506817 162538657951642091
618189089 381643887 188686082212879645
337922261 655329018 54893230713470469
971146065 32105948 16801521789018578
271823009 720675601 133122883591696320
50686041 952784809 47185708530377485
546410447 453004851 20392602948554977
13485332 986233176 370278989663735
339415652 653635755 172352353735466385
241901215 752275009 173312308449663932
75011293 925448379 66766151525226581
275458129 717616172 49055941819976267
604046487 395934865 42750070104454516
60866113 939758736 17484866173759257
960823023 43501317 19214271225522344
773731149 226927689 64479823853707496
308302183 683864297 139939023238844592
697093977 306047379 170572615143474036
885268633 114379317 22801542413042868
671063455 328916092 112168691960826677
735248625 269490605 358792573815890
1057357 998711857 354219584825058
587707225 411082443 116766371722757786
159586707 839869403 101889135378774412
6920469 993032574 124421429229184
917125425 84396943 13309746625262282
417097865 578082917 64657845000674910
5114545 994739513 1626512687869880
610817046 387845810 78448227406693425
826885994 171017289 115516059148817189
734191671 270090665 146832496537130215
918064905 83143057 36250123402786410
206302811 791351566 40355747360027972
556283585 441755281 113962655545119408
835528396 163599611 16038127873053999
889111221 110731315 66415536098636491
792031194 206637365 80640500970515007
677856230 323107483 62755113879995222
219643797 779311194 36737863973789951
303803209 689890369 157969461103393608
442733251 555451483 6335970808222516
775872737 223818155 173030759714650579
25130669 975879943 2821095013010431
98861085 899873236 22677046530726963
939608849 64922911 21863488071849432
534406081 465931781 5992813739750152
392103508 604706661 35953172425080868
928694427 75311471 36235230221545348
615212733 385394045 226159097743143480
232251161 764665747 169498032805147120
195214737 800653692 94892403899880844
949305877 52605575 43523257111894929
684981826 317390761 176248235950441347
127460447 874029503 50936067645261467
690858508 310732625 81330222983377396
841532960 156718413 126033824023130778
77479097 923584340 3850061262111603
417443767 577834811 123177005100613774
744208619 259270466 57731703794509597
155806049 843982984 65871372202687924
552618121 445737713 122543301512151862
821226682 176356656 75955005675851709
956541103 45848869 32765395477687024
363484588 627305945 132150468151598224
767972099 231862989 169226039592198575
817918493 180702455 97864247190482862
473489313 528770143 225724969945921980
69603838 933032151 687220842612587
321803153 671248424 80414051778712784
483768553 519692240 208861120005977450
361452383 629566702 33920000219708849
444654625 554153473 106686509069744768
1081763 998565304 10189102247835
554682686 443169407 147552190623650788
294831553 698926886 72357753975629056
13539447 985863065 10416861692836996
116689845 881844009 79200540113375976
398160368 597497180 206625304644837422
144719003 855800501 25862045429586041
894762587 104756941 14247893409786804
246345483 748732049 141118065732560274
88365641 912625475 48863111724060220
351611043 640220139 64338807574384200
816459847 182407289 2518094792013146
977624497 23619904 1657591605134016
100351969 899388689 29537962646269830
229217537 769528433 77636952023622825
674102477 326214207 70225239809535701
731286257 273019080 10830422424729300
880135004 117926862 53204421167113887
539991039 461482561 235005178676814696
932477243 71755649 16160473863601320
800355911 197940863 498355599896032
770111761 230658433 73556840015018922
619635239 379184769 6348310916209481
442322040 556006603 199196413618516160
831790463 167066946 29422572142323295
220908569 777895249 165625077445076117
831385129 167417707 70998234686411434
495220533 506914070 247755833741454724
242116133 751976332 168607582126753813
507229815 494611561 76698542537187240
32766518 970388631 5571883225065582
490476057 514383737 207958951112674480
12982510 987223743 7752920592979987
753332691 248231169 124383941359450764
733157307 271141164 159568805136796531
220601317 778203918 81652540838951637
232707466 764012250 90949448174024703
871636427 125448619 57694165182309503
217761173 781188755 81175661209556324
195793865 799326609 81660490334393023
696918315 306051158 85046771166825433
244154947 750511714 33291839682950246
752025277 250261793 159536862502441314
907323409 94060465 54935155692155596
980454653 20259457 18727589771500788
299758275 694536465 190749972018202094
180061393 817109396 85866728814460007
371320735 621570097 119053217636002232
85033306 915408285 39783041301116006
187170202 807830869 64266971434787833
172890905 824680961 85675302917186250
340540819 652737623 139551907957414256
867049378 130652761 57897562669257929
205801597 791667655 31036606625240812
968272102 34552672 30915717012838146
635663764 364385857 227506951231938277
753699805 247453856 47729685767415641
167939433 830794505 132844630312854641
235375713 761877391 64683857766823260
881779475 116942065 94337990191850784
433936341 561138253 207649073333341448
434960149 561087552 102564786388479468
289989735 703393313 6283394447586245
998318769 1871177 371765566694398
406583691 588630861 6800701674640021
894690013 104827453 19079332173511922
386734999 608264671 125202664393211335
205503795 792155137 58332436323520589
202993174 793964257 83845322082241865
335452913 658490531 69663756933126522
21151225 979665799 4682341158597125
6350713 993744481 4316795629250202
725771228 279622917 109532762416936677
84786683 916054096 71980736261501612
162928001 836362489 14928520029630948
55746395 947212378 36054212266350436
321056313 671456587 135923109597154442
170775941 827361081 108287871923309872
335140092 659018034 27688139856330205
400157569 595071970 187152724287212207
974319273 28397036 9282000140565907
893402497 105860191 68716156499994484
396093253 600153225 66226526701734374
951729075 51118329 12808418575916790
91634529 908621850 23648591258324862
830446831 168720191 36581503796732810
58916910 942043311 2793460674899237
491085117 514077517 210847158824564547
389130951 607094553 63684938988180901
477079930 525596847 28823882162975392
301046305 692064759 166448372861564720
437414628 559831012 182546209970167493
307814071 685023821 31379250063115840
956199012 45892775 20322371900101190
820128637 177329723 65913199888388682
558829388 438577820 213047308183229382
190688429 804794401 77152008104727614
87933261 912694809 677956273073945
206810308 790399617 125756679659308975
557106763 440928567 203480382165491285
305192547 687791859 26539145724437212
551513497 446022991 158297346318211800
798381057 200685897 103040159300311804
118037673 880963134 28236887679055683
535081997 465454536 29924177167508880
107379593 892309541 74918704815690100
156030358 843793583 93884139604667308
333788695 660983027 614230420874085
593750888 406464849 151653644595860314
10785585 988942883 4330363710395000
490688061 514210166 34628034228032779
613711645 386555024 141358184744422146
402304334 592638109 31289726660620031
35823664 967455412 10711403439404550
144848462 855670080 63250203009086583
315833553 675346265 169371496539061414
109536569 889217498 94183945222180022
397172077 599342349 137032795611112028
517437472 483598483 249267644041275817
189055018 806123503 102757392466447591
312374846 679255353 200299545517061360
852390888 143973115 1559216541896740
144214957 856524867 36232052526031180
402811314 590746645 159147939505377841
371546661 621388569 153051521077588822
379665025 615366110 192152735332592893
368480544 623881885 135247454156872262
233766041 763179067 13983022018432076
608690345 391383769 219207920727797542
295659260 698404537 61218395096160266
619524353 379637385 148108218591568328
30894717 971854213 1573838360376046
319766133 672163835 166717843729413824
193979313 802218589 56128790061518052
773670153 227210850 107055455518986465
984916356 16151578 12074550972135561
246961505 747616518 181627389725718458
429140167 565784627 221903197267235202
647054213 351956062 189929899887531132
829727792 168984359 125613112562407350
264320585 728975148 152720164084035688
939114083 65029733 18498903966678818
316747777 673946237 85936321259023415
742571607 261369931 3198720035476559
327876185 666975083 160806400374672548
704329147 299568709 15970118104335832
1036769 998786565 488039381321746
243588039 750836113 148446016169217098
552778189 445511484 147574977168511255
379262261 615917735 187175311068966452
967003569 35663073 6566917756667327
836989695 161040207 95501765300618580
581407726 415949293 145071652898660773
612756667 387078354 215364167726142584
20732529 980243953 5812212873862652
765303494 235353765 61882000220471205
182223265 813976577 28613701547049312
301589641 691756741 12716121327594908
213501679 785568039 13161653830294676
673289773 327291267 22298971521524692
26932081 975586269 15770993529879654
850014205 146491313 62347606019393090
187987441 807038153 69202867329759338
140201509 861481229 43974143346605361
427642905 567353129 210881846308577076
235061445 761895401 84421550760816388
231344261 766691384 147092601405509233
448443908 550447145 21533573552050139
247434169 746816026 82654209320912143
446596658 552739775 31744807013788205
689677161 311436949 110844481526683070
90911089 910009043 41819544318481548
653025099 346361633 10130644774385024
219254229 780140499 6493365413537352
988010323 13472017 2018224944590753
306287583 686667851 190991345606500996
243442249 751024963 145066004132104751
621274967 377901693 153592703900259320
495282745 506847365 11777046277430320
425896732 568653217 141241997393781575
449711198 548907975 151672252939608284
710014172 293670361 145528101880620458
872080769 124295366 99709875257806500
973089541 29472125 22579764443598305
645468209 353491211 51849723364395434
627858330 372195361 45896494581570150
694525314 307780465 64857539483341853
265267457 728631345 134874713749102472
99409632 899681913 47632214393471956
754944449 244724177 131569199306613918
523974394 476089479 24653548549556004
906430596 94918454 9719903074120199
501057043 500840948 96203621711014726
75542665 925189853 20076738635366438
467359265 532663761 40202289259790266
293994175 699365881 15436895314711316
705109796 298731105 132598160703486665
558095033 440344647 13431242443454098
403741850 590028257 82294959280225828
459353650 540474657 223606105906536521
235681703 760988694 11861770569052627
250699185 742726985 130339455771043496
129668369 872348210 34601036464283845
341205463 652580405 61192759278665462
31208677 971690289 17015160431144948
134103491 868083201 16244191346344952
278301939 715814433 128218421872352110
930962545 72896806 33917667776764077
379668097 615248639 181233926810565896
398943663 596246453 170647635234637268
597389761 402801466 218387898814402903
229022879 769590185 89031805059408268
233927245 762534635 85109529447031364
511662665 487647722 160305554266977821
766061534 235081397 72294550922273114
678150990 322846707 26084836924389789
75047455 925337354 47310546216048106
520956326 480134369 202653190734725216
433971068 561136569 77917164616033583
419627458 576090241 15632562402571
290105129 703271655 39365692428586680
147176026 852432816 92831837202141934
514219828 485856143 15851981576048384
630263225 369483712 203872631593714784
6216902 993950119 5197138482487026
908368041 93566864 51033028635419885
10148031 989249073 421203551541004
881242018 117239439 17026632875597772
31467879 971301653 22661463433697400
132721329 869592753 112325339356735927
830729152 168251219 139096635852133226
151207621 849673186 34201993771156524
472000339 529365553 33517062072057662
633196469 366781537 22313194111015108
398248715 597431472 2205399030838157
636937617 363402915 21897574819201039
600250248 400134069 237606041053050791
61046661 939085353 2609227716611488
51873145 951484213 16671733501400574
900643115 99474515 88369596408965749
289647037 704019524 76969002916755003
51066287 952355757 13886503205311435
973593474 28819762 11186422330169752
228711421 770060885 47152691591916375
897400365 102559045 91440290708883630
897343585 102611093 34279223921484495
924172020 77931052 28632387927164570
82266369 919195233 54332238469756180
546318233 453233873 184898372392378571
229325265 769519177 21293668821902080
519829466 481366785 152000027773685132
660706393 336421057 16660290168487432
110950969 887163946 28395403812360425
350891778 640561092 39431018677556475
1179299 997763113 105701900344574
424674561 570170445 215368293391313702
661337125 336291599 116193255353837469
936455941 67245148 62739998225221426
199604327 797117215 76128350850063888
153531679 847344179 78461222251009180
613635195 386737975 23131223734330048
858925044 137161260 19603392799287638
348136293 644904369 103523927929221102
56337848 945939489 21979189516993627
630802825 369401247 143309834681080569
561166661 434896551 165162351984220468
424302537 570590398 198170831798771619
880908163 117347545 72373006606395178
14644922 985214287 5635216589812892
273182603 720025497 25362751636303639
718009479 287051741 192873993061280220
999125679 1051981 161413539284582
123123853 877091721 99941471191426075
225879839 772554185 2413315866583423
290347419 703066383 6803741097880692
228159919 770121046 131682608163492845
164200977 834906925 38278494941100570
537705921 464010017 101232933876677524
564659859 432375441 126424668902007498
779939809 219074757 24679517822514054
129034318 873234429 80429617530388197
763131374 236618381 160102123749957579
299509729 695091530 159114860142853148
884537200 114713459 74868228866763493
982202075 19117137 13866406432886008
195337361 800589197 139822840054497171
225783850 772922579 32639793338267325
654083039 345526587 159326939569168891
179739133 817357459 122896959597397472
729047689 275035755 166616854662072456
823001339 175210549 93463133172336798
997535763 2179614 1681736387849299
34655296 968468577 2035426546227376
958465297 44680961 25878217160454310
869637999 128168479 33410862904177106
965230111 37518137 3460897771839443
255620299 737890526 169149317674357134
638386178 362353423 99728717348454279
876901061 120758929 62529651376424647
779339265 219974521 94760994947444728
822439326 175854469 59439611054114596
481921181 521171445 210160882226329454
50734789 952782589 20670122483890864
157658987 841672898 105963910531647992
203012797 793947045 28971976859377878
633545673 366014870 25029863674273348
63185010 938374069 25543235956786102
596291004 403978357 28888599318816573
721399656 284253796 56222589662171164
349549033 642451217 68077894069765264
143035063 858114245 39249386455981198
225938849 772264653 115538531741292661
235478665 761507723 86031024666349636
498933159 502938753 43527145614940272
143467471 857639349 15356924379705366
759359971 240972299 103564766556546909
144038813 856784945 70357365648034954
955759016 46638105 30200370959233849
849586049 146727857 62198705285489310
610406030 388620061 152712967704275772
236167544 760343736 49926494423830205
955552745 47361737 26659377763769333
443015889 555111537 177435719194103968
360636301 630455533 62546253720444173
822330957 175899707 23008682841626080
864727092 132097869 53534980603841431
540724067 460653839 236574485839581827
183709491 811590291 58994231293222636
319930758 672153011 186469033603426141
927813145 76090568 36941666518866470
745401705 257118260 54719389550860101
892510565 106675641 69206588469665675
465222865 534930817 166556041672056700
812252929 187293527 107807414343415400
541527745 458524389 214759355056000674
186060221 809375384 45628685292447624
566118033 431014545 163709922218665534
867852219 129419118 107233932562260634
757216355 241848348 57902150093313877
923549497 78474457 23186096864596454
531573979 468418890 247223111930385162
875159432 122423605 45260711992265398
515597879 484954603 208758364965586148
9249409 990221257 6106150713450848
173942617 823793926 88429143246599882
637435299 362905133 10598825823101613
750071513 252942599 106438840630948638
989864558 11553697 522965165037861
345138405 649346245 100985951343111900
651640291 347946474 62752529284455961
245112269 749502083 79184685183422403
51718413 951830420 5838451278689660
583926445 414604083 154998947831827363
618500679 381307269 64543093676751973
559407657 437604403 19097089627742250
223582605 774697905 66964464358546554
223486433 774860009 102836023105335108
377202785 618727243 167775740730388172
392988441 603772890 112961347465632309
200190425 796808337 101586503487709296
892460619 106717919 64568407397274022
690726353 310816125 31078810899838288
133527921 868781965 25181642293027542
721217732 284460701 105314509306948700
357946311 633230027 98857406688784408
84713005 916455371 57985769341370466
931309893 72744079 1149479910603116
206595473 791061578 46771087758342889
267074641 726835521 45121775926954167
58927777 941532949 5283890924657064
114342385 883850531 38307677385713759
51755265 951568689 12863138763900544
606907518 392922937 139667360652156762
427780941 567001591 17692133561735068
774500741 225433766 107915680050203283
520278273 480461035 116954883007141041
778710841 220733271 113243908024682854
495097773 507213313 240316459419071923
14214260 985282571 273623345180070
150160183 850203573 71353215428360097
46064499 956493213 34274873369207087
516126721 484649017 23484903407652726
483034145 520471733 144962182040781815
237793183 758260635 53267484512577508
559370461 437612297 56169392675811620
578903607 419655415 170631185216491038
553839009 443665201 169777327726494644
638973773 362002540 131615091831992196
243103551 751493314 61659590648258242
615346894 385375649 112973089490272858
883392665 115697937 3433552919393256
816318225 183001862 101030518289090251
672072273 328111482 130487995555442799
783282746 215284640 57149187143641051
3333717 996424703 2017639217087362
741899202 262256731 126289609686954597
827020824 170531529 58137941118819489
167879457 831069236 124530729999610027
871619233 125456071 67765562257673684
257258655 736459719 142984539797887030
603806041 396674745 220697301824840007
71519345 930785369 22103859155206715
25105548 976575913 22992130622149776
186344734 809227039 118424703925017438
168235440 830031045 26885903862258804
439442113 557590017 37899601069247099
157522977 842104290 101524884599074547
695193042 307273709 147419453709840757
327949987 666616415 174317929518901467
526621369 474006379 177913387955340225
334447865 659746097 42065650853937866
761595441 238530078 144621457673421870
688402891 313905813 113658822992807901
693574529 308357905 30040374741134996
626044749 375143085 194679539064590674
85220353 915150744 54822759580933098
985190423 16000221 2466052089051356
819514102 178390697 58500132178921667
929354476 74249771 63735629255852010
761087947 238899485 17359951716314816
718918677 286620493 147521515573685892
673825214 326378481 19663610675175822
589463465 409848530 66020878587724135
381414662 614366416 232746029799309004
431481739 563127895 148315774744560218
60898689 939309401 12578604951866048
509233345 491570426 135448548630985127
759423684 240940854 127859264178073162
642390721 356450609 159697667337246614
706694523 297208310 200637349714781037
840985621 157201721 19668415473003282
400171571 594814097 2974525546812802
517144415 483812521 153754829869204006
119072265 880587602 95793545172808354
743028145 261162057 152911263966034543
62368057 938467290 54800655895990101
60463217 940582083 5189676081890038
445251345 553581451 93317519857228695
61437885 939071669 37603992496191836
200277601 796697915 110882326667982380
237899531 757980929 129166381068158571
951036517 51370673 22605932433001038
657854077 340188101 115713675839965119
354104593 637132728 165055763319862006
666209267 332994117 58985263125191610
830670412 168340940 30704516321079815
71874466 929906125 66132999931500911
370635865 622504503 62020791403176666
576255927 423204055 93780694480488185
697255343 305579916 22503845226188678
990874490 9258091 5923419519320416
407309545 587671840 27253627170766369
781235627 217902909 134733678515789496
382126201 613169953 171263976979512968
334864773 659079257 129676777148949513
838609953 160275125 82671488291257400
152599612 848797056 89848978240467189
993800301 6844653 1412328130534428
599745750 400955441 231454111887042402
168992321 829141053 30605028486472516
260100907 734286672 6245161090723890
458133073 541690911 247048451360634874
566795386 430613097 180490992378930706
261658561 732446666 155719734890834322
208124112 789252433 141281413272447628
753643707 247581073 47411648669043687
673486393 326803025 209837921357988924
281854771 712177614 42495328214753632
675247413 325833614 45417200830776957
528451141 471744569 15931886632341520
982491553 18995679 11606916929712664
455460514 542887949 29634643871466137
660608517 336516201 62446488544691070
441407085 556686999 15050285041970825
189913021 805527197 137376218582876719
550387853 447510145 120016307362577540
668680864 330987303 167555253683273359
957526071 44994067 27954926887060894
20251844 980640607 12183164359129983
506184468 495488513 98691722639432341
701227565 302797822 130214193554415201
629062737 370601217 96800588980243030
702240513 302185155 94901397500798729
214023465 784605687 134170789221406571
755829671 243614997 161038176589768072
886612345 113167721 35500885454150792
599468630 400987553 203951203305057775
585822049 413111755 150955230279301160
522225989 477138953 224743988986124217
553368257 444522519 207409831795264239
690435799 310974332 109774892101839704
248335933 745780681 142915166478058808
234798737 762212667 160270050849180928
399092030 595982493 198109923534664565
65626627 936578601 44037953135451452
143983828 856805088 86717405647046023
313846415 678000749 32112271708109598
754162025 246784767 131789473924903744
988644457 12575313 4712061517364962
159224949 840351032 19389020356701634
408068753 586243841 4008925157384196
585483007 413380589 146256208035716853
383311211 612502505 142983969729675066
308605123 683351309 24318421273483635
445256807 553574144 63698071142457657
226190801 771968641 48934085940293096
547790494 450497746 27506503185449665
474340161 528332055 133927701060529084
429363217 565258137 32030538252388426
630632449 369414625 72525457133646206
34036713 969247277 10778352766859744
248033324 746412511 167385727556624739
304806266 688763283 61883197792550967
411166361 583534113 109003366030925671
755576540 243824845 15203731839252737
378859879 616235884 193056477810785330
240741071 753837713 65078882246064408
735803509 269288455 56765283455151049
788776289 209981061 8663700677000442
60551569 940013610 23520126338736006
154874497 845675115 54040269804115711
19051317 981574117 8300608378889170
282270553 711664013 90951058306723595
217755749 781614486 28018925852022332
417700941 577513497 166045247517235336
618915947 380072286 19585740365486992
362620827 628566190 205062220521051452
186625349 808900607 47353227475298916
353414094 637856525 207463429682631174
544199950 455695738 25147003366925695
600893249 399176378 125592380594618838
838874113 160158819 16065533144785698
409400978 584770910 66471202397535635
271041333 722312177 167744245227768042
399337517 595362001 55417449926228380
380128293 615033565 209112893155559096
895672180 103423480 59850797371491778
851004761 145149569 72736903026614039
308441525 683630824 36148319743285137
773379187 227238069 12128041271946077
101589745 898878562 80804105733468205
425889155 568941961 8676151721355534
317056722 673918106 30277918690398494
917117864 84426389 8674700334744632
759910834 240091393 116650515409492168
19318701 981510177 17470160096428095
93026905 907333541 21604651809721935
370170428 622758081 76879888213587610
553039329 444957993 213995023033397904
109680397 888011249 54812423228330605
323604305 670014217 137487768589497643
593760023 406458145 27322872908999428
977504991 24075408 9350192801809627
912106801 89901865 44149809846954916
411907181 583030605 68387091479015771
163672333 835694155 106314150248065844
300692865 692790904 132768332770706458
103595329 897318219 69047015441176656
221798893 776948365 84111892364589648
98384345 900766997 77475713560774604
954618073 48692550 9068691873954948
696728145 306389359 198599358084808914
736930573 267192067 111274597554951104
813401353 185782693 61085023091882456
681748355 319960936 65244252414105916
806824089 192949977 148545412973418212
279559324 714518563 70357743480386070
466335939 533474137 125125457453427248
642776611 355795499 8228717758881910
920643035 81058045 33586518031771372
290426919 702462303 117107721933446540
387640597 607588255 85942406313191493
852171932 143985089 13697994929040504
562620455 434480485 85832253087099345
159610437 839649889 3211517467976447
850144239 146284250 102365443513312863
168493149 829769940 117055283510224824
596873895 403582130 234483900998813956
69856269 932874657 33729735658975296
812406645 186975723 14476794411942041
920666876 80987995 9552035709932566
157309719 842755211 70659660209976307
747569293 255231113 21919966124442306
281094067 713180130 196552952050609823
131006317 871057265 60450705361476249
782510794 217030721 46928596604444748
860032321 136771219 109851076537752220
81817122 920213159 14251384909879168
849704838 146587996 45886479750202941
71057409 931141959 42804649444606153
754347795 246414807 128829678970059081
482661203 520682945 12397058953847584
332038165 661609857 114505723098102295
943980712 59760967 3439731276684680
964968385 38128949 6997419133233513
125390137 875185061 22694253908545438
422127197 573389637 195361375490244966
831924961 166985937 29982550139918670
895955217 103283753 80670650066561355
112728691 885302979 34024543275721598
839065357 160030037 105231481292234831
650930496 349438375 132249358071340930
126186921 874559279 23617958255304998
603817551 396540866 200984313715654092
855890441 140424221 94919365396404358
4474845 995628252 3237498411818894
315543649 676292043 99854091423033628
21260536 979441558 399815383439600
128794727 873370259 22783763917251468
574798377 424869127 221917073960196668
558281276 440309332 1113179570129767
56732811 945792121 5087624058481134
867500259 130314767 75348695829407214
924104253 78021929 15605753318062768
94501547 906356454 79717322431751165
645735975 353290585 173732972323543561
206814113 790359233 54813512995027704
805537386 194407529 122330922558925655
340440665 652936721 13193011099654274
671493457 328722203 120951308584598984
605470625 395206220 111394405677214373
190177353 805223845 45761970280717458
974464647 28362881 21774834005470521
28419811 974222617 1638900628038487
389935384 606179192 44600916208880056
538133885 463419749 90705316955819848
315327207 676337851 27082609127950744
640162619 359276467 13356300266482036
516132292 484646041 23910281069563003
363090067 628218849 28342657277376212
952452928 50549505 26845963716192072
779835267 219429908 113242766070785710
970529144 33241213 4613162067057176
929764735 74042724 29135550835529552
988212501 13161569 12348818186174126
389922041 606192040 20696978668021561
850088197 146442271 96340354655088467
237650197 758371641 85307477847777677
357136929 633571745 43459075761405886
962614936 40704381 12899617144709198
239921264 754324989 130578105481708349
206627937 790969107 97117261347059105
136556117 865113705 85038350873129469
307915175 684562529 159450496180592926
599247578 401175897 113970465119923609
825828625 171993147 12690368265367884
137919256 863319525 19984878115577562
288584731 705584400 110568531034475825
141121570 859588569 42394493251804515
326336537 667721661 109803745387708620
459879689 540171433 159575370225955375
551178085 446286027 168623442124357035
61658027 938749327 39782850051289922
17002961 982814981 1400556797218438
573830401 425269427 86137358454357168
846640930 150028849 61088231390047728
722775789 283488281 81027045350226383
572600641 426348792 208352303661160558
507441609 494515571 165691033188321902
224852617 774545897 83727581855854826
541065377 460323553 218523486367936184
86679669 914130111 52476345162018134
87773621 912964796 438015101590373
384544659 611655563 167072340403390918
192771137 803004681 45766167666277342
205144118 792635046 11870415622982470
419995069 575256295 202569183636279306
758428813 241517172 108085017188700930
689029691 312824497 145054317638087996
833610025 165451751 81457608012281967
185102953 810071785 19042420449885643
661419875 336127418 96692604717284269
995450601 5240256 4332913951657490
286183585 707819624 2523437687373372
285344009 708924298 118609413590351743
531987644 467792533 166365426994685730
294276141 699178001 132663494221722121
453618355 544963341 116642634934883918
130048073 871594585 44410238634473349
959932431 44388031 37093709343782110
732679689 271694817 45926284520616630
200846393 795854038 69926049904193519
785475662 213784351 89979764422329506
42639509 959865601 22884191690803096
772975745 227559064 18258916101458819
918242701 83127291 69212295450284665
715854794 287982397 88951987530850992
920701401 80877966 3800794799590333
497923749 504239433 193167887131477134
367466128 624397406 198634208574214276
200391599 796695237 100885310077416360
492736291 512158409 28753280611093297
627336189 372550785 173969957876234812
148497178 852029769 125267249067864562
359150325 632102187 190067173151371182
387074642 608066139 10398327490305536
947108280 54819329 17617500523484041
691166349 310394551 99416308477441659
541578201 458403185 73760985037343918
590002628 409219025 96536842945431754
344353221 650659529 17997328973476398
836297397 162549619 49979465490780529
774823585 225305907 58835473580632572
496051261 506430848 90883790660315286
166244740 832252721 78933998386520652
717989473 287085589 136383905261732172
250779761 742491740 83720344866641552
8055905 991461098 1770431770204371
288390144 705809938 69983187021749948
818535555 180336339 137010864406645426
636564009 363770479 100255295151432342
713038255 291110049 174304501606878298
620209270 378712621 138697237474012765
979301089 21277123 7643234197756880
430097237 564704480 124828841204181113
109469007 889422565 22082986007090126
726673213 279067343 104811995636830800
271176153 721960827 29825822375377284
843955469 153506919 3610650640546422
983778329 18074985 9556960638851728
855211980 141239407 94309279488677629
967075457 35576465 1592039864073306
665715489 333109233 55432131345249598
9457289 989793595 8099654587214888
368154387 623934613 138204373535788223
578354945 420524617 32090987559150900
435928379 560636046 170591582225568987
676173623 325062041 32632131822541326
381488289 614216462 103011898271374825
600824985 399222213 65367392826718815
289436157 704515786 117548575209292053
224600807 774656751 170662728294782171
579742137 418290088 116497411903987805
261636945 732449255 36886836998134956
15112479 984412355 13646091743107824
900304051 99802382 60338932063251045
103451321 897337857 62256318755137024
667456238 331608095 127959961940694325
485634330 517230078 195843734511388532
505202447 496687792 120206217749925279
976817656 25299057 21240478217848678
392349595 604691220 146419113140167581
996864051 2716577 917133090919880
334240269 660308929 52246563217700018
28288897 974296847 15340862997161858
209672725 788421778 21835086239195763
762834585 237455561 91726905442378838
587599849 411086299 151922356136134512
135396357 866581825 13813632639428049
159969823 838964841 65480777251963362
530511577 469636833 12542673444824735
292198823 701265365 137796360544127464
774886805 224874464 68621528129274054
900881078 99117167 13338263420246644
904566889 97402945 47228442193367290
510759949 488302489 212922118687882530
940313911 64582897 34344580625556446
523808595 476187915 133153202851264224
561380985 434681073 58761440956021933
681612732 320092409 43596378459387686
713181493 290872090 32433297261394630
469726168 530699727 73654060981310565
279573033 714300333 75947649501829020
512337412 487148072 8146495504639233
687942185 314305384 118923619097222030
78774921 922533823 66203657962722408
889124549 110649891 73278170705571776
155105125 845312723 14128981638347480
780668009 218572431 124683882118081990
555608853 442352709 93652396126518288
202629753 794208791 40031353905918912
490921020 514085183 227991131449733395
405063620 589222963 64909232354605203
678554113 322036333 211016990098767028
52339449 950642721 29882597204833556
44946241 957265001 14814472352037966
465485805 534601062 218768158370389249
260500545 733256531 173162474051791356
426044917 568400895 205825676484719292
583282607 415006337 95150551597254768
667151994 331733161 85191639221344148
491219747 513695002 118159163086694020
574547863 425023711 9200392261077388
959092233 44628401 27371010885039538
80761837 921219472 18132935573731738
339118857 654000273 39188886129938591
450326735 548318595 193426449622107762
610403373 388648101 33234052048733670
172908383 824667625 13015393762452219
505271032 496568939 121496607928931183
106262821 893562405 7156217715474045
409206381 584808921 30488269496432774
744579571 258203951 52702614006982628
429148655 565588097 235599694721067936
646078635 352805103 98419970528717332
800483603 197838387 118582325903238540
836868886 161236823 92326105333548852
336880277 657169429 175472085752066434
908739923 93242039 11825015305275756
271459915 720838310 192050867207062836
751167183 250979347 19798618054469639
467145022 532868221 12283858098378607
742935646 261201767 178469050249284667
629649281 370307871 131395416059481738
979531129 20925062 6783021465030404
63556165 937931534 6335357305699831
120748321 879916205 30510547320359461
609627379 390151269 206747247161860152
516059841 484727657 14652295036395992
115185139 883006981 84982714949297872
690640961 310822993 88939563069375799
904788273 96605995 11928908541828895
861340948 133901404 35501458833068359
805197279 194468537 50355208444258676
651765296 347413474 195016979752054525
957871996 44861790 13611206117265722
251517203 740529120 65137525916524936
989536801 11770195 9922361541613392
827033223 170417523 16518862284157857
551296904 446248228 105616619192007038
148360679 852235470 593795960387478
523781135 476222739 85627457531666920
337810937 655493594 47604006242091776
359156525 631608926 151852831615841230
267358507 726134013 127417064167480440
323430655 670201307 74925355856806390
228832437 769894376 149635363043110378
529195535 471095620 128302110305399183
500424335 500973819 138961663340143797
68233064 933955029 19031756494588550
557180996 440813617 118412359631115708
136559345 864886601 98004862730156089
264540837 728811789 3591426750890993
825329251 172445809 2124963061690464
640869065 357624161 100319617019592790
123802788 876051279 84285735495711893
945491089 58011537 41351094032092386
341501229 652439881 156021132173821238
794682747 204518961 35147113918624924
347681348 645988608 96217429672024494
535498077 464744212 84631563131756568
883205823 115841549 92407790497288440
349744129 641970116 55012538191318898
702550870 301881485 201285206744833125
30667844 972000026 3061787888627516
395693421 600430522 200302036403730151
316032573 675268378 170694729199604463
550215557 447695849 5636656010637594
153321107 847833533 24639209367242014
644749883 354180689 202329394991931164
92124549 908044218 63108065981867848
454859095 543434414 101018982141732490
471243089 529772891 5768762903311644
121447918 879392773 76433270437755301
497354250 505516953 14502032621968247
623869186 376869393 194066562458447520
601780369 398193601 28054572657534570
723329871 283155790 95325581775179989
788765617 210153439 70277508177620982
719214750 286196705 139020094506618325
820175817 177171266 117239548964248866
3425057 996111102 876956771747956
544313516 455329181 51100704154783598
82627277 918610640 59247559506190440
716779765 287320349 201806317390579990
854941569 141513309 100094231737702770
155991489 843961565 26656009766740320
286339991 707269141 88119142991790530
834477979 164735549 25812574155545737
600169329 400163381 159269497465271822
516545633 484145476 58277311089214925
951088146 51176205 40758723547980222
393443530 602786998 203505591573411030
137807663 863384225 85032104114301276
618089755 382361171 40544000359180571
720192033 285283356 71618891647400996
985723373 15058676 9877495844259890
948903300 52915883 17554068364242347
114310805 883856220 80924077884487589
522415056 477076703 183112177639753306
26095104 975692104 24888283582413020
419555807 576394559 110619463754141554
122424126 877723089 85138623596259101
383816807 612305103 58823153037759111
102377279 898541471 46253995580952493
100630149 899089245 68334724987065088
260331787 733566857 9844527316368177
871103828 126659345 39135206417624456
24952513 976801867 19845110988430300
720486965 285030199 187132018729236208
550789079 446688449 191349377634608539
520170878 480745561 197391328658426355
475734475 526602001 115551089557688428
743037677 261136691 86093832272953574
535266003 464856637 172737653272770655
776973201 223559971 158729624657394073
998698793 1729956 1604775406438828
314750438 677089159 69905565225545654
429826064 565088201 193736374634184484
510633153 488594178 244198921732741425
225348767 773433165 94831094423367056
300758871 692578441 19502397044804152
222656857 775476423 122898818840825144
334429236 659840680 128519696116894198
971010449 32180787 2519176263597684
363113433 627809023 163943219529947536
338784269 654357182 156034988510631825
808539545 191601085 77861280887375250
263344389 729609780 146571809791119944
850176151 146138705 54672491067892359
129647815 872458007 25999082936794603
472814465 529034431 47807935033413080
372280486 620952399 59233524477130017
533348017 466802659 8401167063945658
176481263 821017329 57071132740957485
361105935 629911916 28117864653373647
348602801 644319028 191540825577020606
914281098 88262583 74840158702387553
703474480 300980549 90809588989254378
406931821 588266555 205065176765344620
993969341 6684530 3569843382015639
424432826 570557953 47570681325883073
172103516 825440049 5940375555531779
274216391 719166875 9383077991953168
368444441 623893284 59530473687198823
134231691 867465294 70130962533567059
875663663 121484833 72906215954274624
609597491 390219101 203474571124277996
987059617 13741404 10114458672999868
265073829 728719936 64139888157559195
295104857 698857442 184805447679809046
451161759 547384127 21515461170860680
788378296 211114440 135613054018704633
596804907 403653063 180615505654469736
214196757 784149153 90259022455535734
791463149 207857177 119870858887562848
297063396 697286351 65282288287070208
153795799 847131000 117458377181961610
507154845 494715415 154152065655952274
1546797 997580077 850169697945020
825045595 172936372 68532006428693525
742265339 261580940 80092268647880435
761376068 238601968 125851982653775492
266403395 727179383 128551716147322197
388327004 607307017 173478734213345616
505367929 496218509 234903381297573116
39231873 963762057 7610027076293228
193474843 802459954 55980569593721720
342994425 651522121 62630979126258694
833645798 165374248 112294657293689725
213979153 785020443 76917732794521371
844404553 152321923 27527878154443308
286860863 707002161 53732771394125395
970878993 32382769 28677704199353986
640472407 358490311 43717184023393615
723449779 282237246 190613357507075205
345996167 648196459 44640550149383684
12485629 987685761 1720029684392382
422287491 573367539 231417468317003102
71469135 930924808 19046963432539820
716087539 287811533 25010046327081915
155225826 845221243 20390760158801666
350878743 640870985 151327649822207373
426842989 567763481 222821201524481627
299343005 695322081 70893767399236388
78062909 923208508 70006948557251945
299804332 693864097 198160613123845852
993570767 7176785 5989069609791471
158495949 841144733 71611887865893142
69309253 933112671 32406668985564204
239680217 754741933 48810069698984551
796943984 202211744 145011303781443039
33796947 969595455 27511139076078432
145834311 853610227 55042296395983828
679354916 321394358 21315725182885144
312418257 679086301 29950247104534924
966883417 35691857 21368218701566628
889224321 110459547 94471135819824850
82216631 919328920 39716529067491145
637644177 362664465 58476667558564451
214423438 783960726 30657466313009407
966047217 36885815 30515733937973672
774407727 225707913 145313888836346420
281283261 712519635 111989975723205324
939813529 64778265 492682707276130
429839117 564953457 72987579201108139
543184485 457072298 201695076728373042
899358396 100543425 80276823498968402
248298049 745912673 35179486818407778
519070700 481757110 65755366086409493
342580111 651891042 20274109438570629
600608428 399564122 122815348081008238
779374629 219878705 60164977616717000
814427045 184070472 124802753506106494
888948782 110982253 13475442208040248
904357698 97404602 61224429769162845
408113776 586142441 127473352287537619
334482369 659665282 209921693879634749
154252775 846758457 29126015005345084
862846579 133233403 10204860262818518
556868817 441344677 237116440104884347
391033441 605438833 19872917297619758
822939873 175261340 101328358813115360
615607571 384977133 235819558178502880
284022454 709657393 20621353926715092
369696149 622874550 100781895396359506
707443866 296082985 109792760202919561
882450553 116529061 46467068910966112
139530221 861753064 98646867732836145
686934743 315439923 192369880121719818
23185414 978329704 12818901521336653
663049694 335436367 68861570138966799
769506324 230980991 77409086549153798
50824708 952704017 22841823753317673
335573049 658340783 111033727617328690
361813549 629100577 3438129237564480
24349839 977742661 20163064765592006
540141511 461421931 96553851038584989
919489713 81706841 10836840936997592
3940458 995777553 2530759643868797
715791267 288218237 112840994739293592
581314705 416259847 182684260255948761
759901071 240292389 4185031950296712
215936078 782911836 160573644447208509
427496421 567509873 144934271571206550
178736390 819332909 52567196373398507
396241757 599980775 21253835226331048
945659355 57596480 38092136614764128
722322677 283759587 97881702529937164
922937625 79408663 44848826884891259
320887217 671638938 58907506827494071
554062774 443508925 80140978552625944
640300153 358806529 34005097215666663
586043718 412943669 12736636920950434
407443987 587609666 203577418312818100
261552350 732458658 92728478127995281
82540873 918621855 74123393433892929
654800605 344752141 31775279358895478
518594908 482210974 190238546993915857
700812505 303890721 124448136977504032
636656142 363683329 70037171715971711
225867093 772700724 95084919684633506
98853341 899994821 35194347989344088
49802822 953837251 3655281865086213
399273591 595576705 95602997431883712
311525793 679732354 121000856597656701
744785292 258014679 128967193834170584
613849767 386537297 236667925431458678
834514445 164546001 80269243292219231
683574921 318121177 164963133013137537
420161117 574572189 85695916427370376
407167197 588090943 216090909913041394
212906145 785865825 121413051269614676
43205551 958810465 29303949780967408
667859915 331155713 76601866444875842
895779961 103323367 44601937196923014
60367673 940612497 2757469182328990
501931009 500411897 219423222735764212
356141093 634704603 27803120308191438
40872453 961486899 17904940000884845
37287999 966088953 31651322409057260
390191340 606152567 62078010209851005
474571955 527247716 241699632331125664
250199785 743609214 77462624783651213
856143899 140274065 103570997766452794
254230657 738331492 90495133735784034
890060562 109027643 42963028941086833
440646321 557136257 40419150866078590
943173445 60480565 26533751969454392
446883063 552679284 219296293066208267
963737715 39690801 27902941801151776
215081917 783538853 72948445463736130
121320547 879399903 31198508800522066
378510436 617534837 144852519387223928
427827452 566933542 190155525140183107
971968913 31158795 25515457827800882
398701814 596720741 109159749337634049
761176397 238845257 24916949754503890
150620956 850144527 93490953980795045
893793860 105641739 34465209811624853
154244242 846790264 11583786056082270
844969342 152252145 27077283120640106
504836406 497498199 159336287820762155
351779125 639956811 53533080608393358
869716307 128116851 32235832833958461
595260178 404908909 113325938089840739
146136260 853373860 74653932280558961
424984271 569888433 39905103529115870
184675617 810272198 139158062603332605
261162832 733090841 14890547874888245
797913124 201185931 76099808275552609
619333128 379948449 75099403742522922
894450343 105580102 80599777724041056
355750101 635039835 197790902277607802
94631795 906303406 16746445756105732
85960177 914176505 10968209698448996
384466237 612053893 110248095616979084
339297113 653899914 161720887430030406
387670100 607480553 229769523300192844
478494539 524805421 12993468242265852
200393548 796552713 91554484129287865
85458044 915003732 1525736792626061
188448129 806805529 24954661695281870
611124805 387796417 231686518554537500
271849055 720650153 39085517941512870
293545223 699692910 132172091722163711
960638008 44282727 18706706837345168
345283553 648747234 188675936648363776
897828235 102387914 32742147672053543
919302695 81869105 15922644570255409
239266352 756364769 141511744547652482
694749167 307753524 84092940834045977
55548971 947249597 23893458708966508
613742898 386545262 40404803710763649
161810849 836761787 121152381377671991
974012729 28441237 6916485504226536
24555956 977428225 2935763969284898
836002815 162933001 51532776200336872
385836535 610145409 139335770009528960
423213127 571661457 233496871714601802
608808687 391235585 17317449455983622
895456169 104183068 77723817156097249
989925775 11094373 2109386266443908
867287116 130621584 92233721886504098
245652765 749272913 126015643516966454
28711198 974126247 3490648815322100
111979471 886912790 61033784152036232
527653217 472626951 161614299008800886
898349187 101634668 65661084159072297
832526140 166358785 6321291027279762
484705277 517924249 89184216684891301
898695297 101188625 20886660587061694
517431873 483775073 97170779321821295
567333224 430448944 199503811658126004
840553564 157501373 53019163540809331
563493749 433131498 104897962734957279
122636429 877384898 80482941843049560
972881882 30145260 26652172930487163
614137551 386434859 30407196025361641
538966869 462605783 12272186062950036
304268979 689568375 110309410098099330
26210537 975635969 8799328384792095
909730921 92570493 75729653026812233
349720733 641996632 51503356804027163
16297583 983322757 11492046915086810
26707 999854518 3783923517574
485257669 517564779 239600559766943330
380281969 614976631 156774958759925903
212379145 786400680 55925102754005403
887229010 112149087 97240810878784214
925146398 77427408 51722868511136953
484343299 518323825 176288160662350076
929085019 75045770 20228528256870007
599868771 400666297 179626141511719176
530536531 469499603 196017127227725342
140290049 861421849 106947727211432296
287092973 706449135 131378133315001420
598124577 402536057 6395802428160747
84274407 916501164 9843136166524885
428943881 565904525 224045468072027720
535820009 464724879 171554927176154110
329960301 664692812 120124780341074348
335972749 657806174 44053292581005888
875409589 121666233 57016329387441093
855343263 140877561 67942350674674689
158719239 840907240 126238734687565527
93837535 906678506 1692393026888193
137163152 863974777 61052716186805966
180693793 816082530 32161727970452608
114678293 883197125 2331632964122240
452198145 546766949 123954010322431094
811978801 189091897 6573979717765266
903987055 97640951 3898116613166742
613978249 386448627 166078291889976646
574101491 425167413 133445908194996744
609686374 390001791 7033988045456264
774128795 226679261 117414681354819756
474129045 528502265 195255497953381892
201141713 795793175 27186243254531276
231154144 767123869 86216905526741195
202346385 794270604 16930978101488751
502470541 499639895 207425861051195882
543106224 457133425 80664494171708208
716599880 287449489 111391142484782920
648432493 350734653 174836052677525591
159355857 840049181 73192312139906215
587410480 411137465 128371422775298788
401263433 592910187 103806157982867036
828482567 169962959 27596513427721696
882867456 116273796 5067392271143040
661555033 335874169 6244341542425022
272768282 720374457 5269651599000439
253389601 739377411 74094128353805088
171349259 826640479 66845161157645946
293576442 699602985 58427890224179090
58052671 943593187 13017943488643610
612564532 387247654 23513290783808343
240052075 754249980 108113202312466209
971217547 31934809 14936856716708362
138166336 862902250 60398290231012738
382634359 612997071 33288598835439842
690995325 310597365 167289878541169124
532253893 467531517 62994369482812488
843645633 153822042 50429562457404678
385465410 610261583 38465631798293128
136863459 864392220 38758551620935802
566603290 430736655 199633976952173857
692443815 308793537 97456346058731762
961834141 41805097 35460999212979096
849364521 147197532 13303045799823592
316106433 674916641 26040563132612858
354843581 636056905 220099586605477486
134307865 867020166 8914209013284470
32931017 969914194 18645609486923096
679121121 321538037 16272186607760276
948529741 53415355 41333337174712460
728665252 276016413 185014376173178594
903498183 98139605 77808351361993415
320312809 671901761 212190899478309761
116247653 882231449 92604567387414318
498232012 503514303 98041732184466600
801711675 197360456 107956106943333184
466398211 533324181 167228261175175636
583590012 414866430 227906643910043672
838732783 160198920 909688439583900
308136193 683931085 115091873023719378
252857873 739833001 168109830114472628
982236029 19060578 2125495047266676
470998027 530063881 135546389482935256
453911635 544844903 190821478188451988
93854129 906599732 27212933417836925
392593289 604066421 223462093113881612
931387085 72592588 417920067188048
679077913 321744445 38862903167207834
693845498 307994884 168178478599258196
864529399 132233846 42087343893707288
113030911 885096782 24841486796372664
512511375 486784124 193598686553648751
260342735 733538793 164102233764824234
300403217 692870152 153804745856369682
512423475 486795177 170569442855643052
689484561 312406662 208219334897384128
633628289 365857649 155193063844382339
772279719 227876503 86854832454562117
290632751 702276698 24766472906544109
279321306 714629546 137589912065573490
3443353 995998860 34968832368203
898865665 100791352 63461182879450477
639099825 361271828 153810177792948482
679975264 321009665 215164064725331597
133678117 868522443 100769906664665777
912502628 89428638 76643413871796354
379166873 616051541 25426465299157581
145741013 853963201 63832874512956432
676618157 324220411 110897947975005248
206990298 790216737 84883848640125234
713563631 290083692 96379881976210354
919074764 82151240 13038335563722721
266856705 726856082 102365786055326772
272323357 720621197 98083506633441128
874164362 123183613 78131961372787279
867413537 130350952 36508772113727085
271000364 722399923 193147636278277042
603883460 396517009 6717908083318081
114638906 883550629 99013833549191740
459336393 540540778 31803330688694939
906377149 95334024 86097131290824280
828537216 169531819 106830113221479259
193217614 802465445 110451042811083266
732835713 271485414 197112888833186289
988540902 12894878 9023657953635610
140737679 860663341 117910303764670228
39771561 962735935 18431591039770049
770440853 230046587 9716445846670808
890467591 108327489 22760302780521315
89884273 911522780 65149504235091712
483629937 519982255 186462007218204056
265900597 728059582 40025878181469063
750347816 252645163 91319278583970391
610047661 389816881 149326260489069333
33373845 969662003 20237848196798094
173135180 824461953 123893368399177684
816685101 181988345 129967789626231821
904626973 97349609 79961058302797636
505066665 496931509 72849120825302765
916062777 85793249 31563462428284472
465857357 533889851 133287405210906280
771652304 228485573 65481475412439800
377125561 618897130 138696483682574882
686335656 315928541 207680020348171286
52767122 950290008 47932547156490067
394007964 602227108 232454862676811455
300947685 692184073 126359519341304958
397649920 597832702 204609548722377017
529269891 471046033 92855215324272914
780506955 218772721 29537550787394110
595288493 404837213 68395909545521336
550069329 448597553 20496378504673332
219662018 778815758 39772940503072940
380603031 614711731 150135830043456334
65368380 936685919 18011694050049963
714603705 289479514 125834769647083261
238550757 756837030 168054776585192252
355093189 635764825 130076784157899341
922939147 79372849 6958030841710236
942844013 60592425 48430925661609450
284625203 709267345 138942417360777824
975006133 27601389 9315056718004720
326044293 667788476 12258285886385429
706177220 297806390 36349266952698615
878961679 118797801 58944558818184501
746617033 256117693 105985813521357478
667551360 331247237 206532111778164130
738757505 265531614 190374002265437020
230067809 767931536 86672790309564148
502960561 499367681 4683029847564738
209438097 788657481 72670616485438794
683584437 317900441 59891894406151012
15722831 984313433 2714295509730766
477663954 525060737 146497655413729188
53249540 949407503 21158124826134243
661895511 335711777 184735589076803099
504806913 498298268 49420583680968606
435526881 560992215 111024528529699641
437495333 559758231 42463427651486002
589141144 410695873 99749015197729404
743740455 260489369 116480080079050736
279305749 714754065 96207114415271460
925934126 77269111 36370934126828767
496295177 506367325 105703859062255595
759600079 240854821 34258285733875108
707549071 295984220 14531936724351977
370314161 622667318 227525586830442741
659015903 338526489 145217301468947585
116370962 882027690 102296134761190354
317791451 673800413 136883702443552488
572471221 426433570 190149313629129130
29958247 972654113 13947827805888352
488537770 515502201 84472490406335972
225823742 772777825 9477276649084240
909950786 91992829 13603664345150898
598221026 402477601 188213995273938087
735203805 269736568 187728404964889435
104423397 896646625 32001089432909612
472356925 529106289 109566964980545828
770765703 229420017 78648032221657124
515632809 484930540 166392989935274426
189238911 805693390 24162349962846787
32015601 970987217 30027835884675523
983052673 18796669 6563088568786418
439933647 557298982 216108124993548391
143353773 858021601 98925619224016042
166883555 831177150 6311296531967113
22238161 979161854 965263548223689
911452885 90653885 55961738421360402
693676723 308357396 119574418571179196
52285358 951106289 18430811616079034
207659409 789307617 4353036886942541
248721893 744942176 104312830831718716
181388014 815630549 102225185807050304
401111457 593193767 75355767065882269
858552047 137957733 60298444142831987
812267425 187255537 65354316688380254
645223141 353961817 158060104901531512
148549617 851896824 45360055063759861
345627377 648435163 32258131007022488
229997139 768424425 42802939465552800
799831780 199189105 77299950508176086
190247995 805202147 89791137382660470
904787943 96781874 81408857612209163
144363795 856315681 109116001752992790
244186218 750271474 115501186801861710
670721341 329489071 188672075781866744
149864225 851130965 84226034399275204
182140929 814065739 103572087733344364
900333622 99682477 77449629233769252
978063477 22290353 7865351922346645
675841441 325109311 164493187273488393
82045857 919828949 60242788234930212
158522787 840985153 62894713957047506
689027836 312929574 22600406232455876
447449238 551683141 233047417941950936
775355014 224493697 165335045843735277
452052229 546913283 166129644790303400
82789844 917539634 67433404018086193
251354859 741144017 117031625965440088
37865729 964921555 10628478958990184
175335809 822825186 135753366458905812
599953438 400465431 235141896609392070
841848449 156538610 111473866028961309
386438389 609322213 108989199199055922
994729600 5832390 5580071653945224
269367927 724452929 159804647663202701
529865317 470340515 28751449205358782
78555751 923003953 36525276783139956
650566875 349602663 21858110419626178
814171925 184409089 147164762131765344
528123857 472303839 68008906508029840
420769812 574401377 118843680067408730
207582661 789340713 21216592388650438
53829925 948815341 11594198806985574
160720701 837892218 83489927999623485
491833520 513359830 123799344877303064
197496452 798907200 29412246234658373
168417793 829782407 77935416900893544
168538027 829455232 1260255848034828
870155274 128005705 67847916862816158
950843545 51462453 13247918513864110
823683453 174557281 57836836369643020
221223557 777699389 72082113363675384
840760741 157323349 83537617008226764
570186491 428890276 64236146943722040
739079867 265255009 153463305020552650
136513489 865278689 83761466256197866
999520769 135527 38122539900424
762582377 237804641 151819668212129794
615543047 385122233 101579182838122352
103787801 897158033 7897946459053498
164485424 833769217 90015399351739305
691654177 310051437 112818897754479898
610213241 388713873 152462374775236718
701950877 302204233 98974079416924033
582655026 415226372 109435388921889650
465207320 535057221 120901062786093964
23662001 977869735 4214493706053096
445751808 553129159 55805218548792594
198706517 797826517 98853493264016622
201591122 795403689 96187244558128965
6903543 993044481 1170010719313402
183437734 812370694 9769947466827949
122087129 878398433 103490891317877290
99670667 899511193 28189009500267405
183528198 812135908 50096621133810603
984291986 17200509 11535907589375497
859123359 137064097 89920405270280047
826114409 171908578 139198556492503701
856736353 139304869 26702383847628315
723571053 281528425 28957408526425632
222848377 774992289 60999318680113153
576000479 423948497 204692360980812989
276834668 716854137 169429393193319095
468229503 532085425 25052888316838002
425798993 569218533 153334456012847186
365311842 625553759 225500167102203259
122018831 878431878 87677408621615716
957010232 45322209 10703260269175737
184330133 810808058 52754749657306626
50164445 953622476 15869848433543714
921750048 80355497 29255615913361404
703096519 301612013 197517886843462164
851013289 145130579 54578972678273152
505560871 495954959 175787184846323808
3393427 996357185 582601016947652
805597649 194043919 152616214387769356
828077801 170090833 15351857323103706
176037456 821850395 129631824375155856
678969731 321763288 172482540698775778
671347742 328772183 135488199698243482
501924376 500445475 65535689964951570
957294458 45151397 41240039448121771
725509479 280162345 58597886698944408
546804731 451942681 108303393956739271
17521859 982606695 6767613518456982
505020791 496984825 67629474207757890
194910220 801001109 63415486352345527
540200643 461158987 203556286198552512
305082965 687926251 105697650605076436
518440213 482786401 80913448861235848
369888501 622864195 199775548123908943
171286070 826937622 58333029489218737
982502317 18850833 8633141748900798
569519109 429032167 170352952665444266
647699322 351798257 93989688385455931
315271249 676607700 47135688285751030
839945175 159055801 78171010389210778
563233365 434015963 211954084611496184
908890109 92922441 24615383807845829
342114719 652271798 166167857803881466
504306917 498577541 14257620841467528
934920977 68305652 31418988407007045
797130657 202153495 26690894501318040
448950588 549939933 184722833620178492
352785381 639686061 95872481133916861
664764294 334340241 216117654012192676
348093781 644954897 124607727376138388
566121545 431011707 108118248769402038
779770874 219480404 12485111919633466
887238193 112117767 64646148288657149
945219417 58536233 31243832264028972
550259261 447659926 240625064052976367
485390001 517437829 228213920840538828
777342113 222719045 41601794031302084
484939717 517664205 10002633800572032
443493366 554672439 173546824988384000
72890945 928075079 58072224209612675
915601497 86710727 75690007935307576
998952826 1537761 97560447383184
602358570 397541122 51755551510362619
924429873 77584215 44783699623661383
379320357 615808287 189881777324743794
78966970 922508780 43320722018745685
124258897 875841125 54542084121964178
666399798 332861105 100751391615595842
556757051 441474169 41177424836063647
727435925 278258075 164174701668327588
534153641 466272227 212938595221181379
168074031 830326009 17951464273869361
458236593 541493759 131390406844352752
721240671 284297892 13907226529233945
995174615 5524319 591981691953564
142032713 858429361 1081471045843648
977060221 25002328 9812801030935024
886630755 113006712 47786534253425405
819905081 177892559 136334891914361651
774289176 225812038 144355036728933473
816677087 182121802 139026608730523933
772202421 227940149 26868444917589296
729837445 274038913 147625473620488682
190791981 804553788 6122168425892305
523753438 476316701 123076345785820239
361571063 629349831 103716775241116592
302106865 691183517 81943310017190255
734596471 269835273 153882612061221843
674885175 325973243 115288520295883626
116600539 881857173 29439133633848328
439796576 557357277 106564924227479226
708392632 294987217 79528801930467784
90614985 911274873 2774781760694880
782117633 217570041 145212125322128668
254585137 738302350 13854471596230784
432585369 561720801 215031026849342254
412031325 582857417 221494401351112892
337178991 656243817 159078846588207696
658698503 339161773 154977356546135996
349149337 643060585 166965780667893972
752671633 249713485 99895626812245395
330514363 664274369 212432230484454856
685948045 316407709 16133876671786619
609166485 390820659 12073325715370592
750409585 252324224 46690560565225773
130339522 871401050 35230255025671821
18619807 981896672 14527540686319989
374094991 620136085 194571134807535128
332240977 661585077 36479198910608100
121075918 879513551 102178310026698512
776171207 223757545 10980293265421109
160632167 838171935 80152700783163459
348801506 643700306 129314813449231268
782202825 217497241 94666541405962719
419820641 575567179 140424803493970028
235622320 761302044 167409915707807599
377237228 618718769 210494525463596106
759995598 239614466 28491958421148490
889850416 109421011 18514518284475607
545707070 453734701 5463529699701166
522881153 476760687 42137226241012969
66501419 936110080 56611254769187378
260209125 733775673 23406793761375248
122295899 877878231 63790421028056454
811626177 189201181 1297848425236026
642029953 356631289 217820160990344328
746677292 256047755 106750838760305007
33799331 969537401 815752672463572
262450537 731109968 106092356184356110
731602519 272718853 178818590361652576
323789 999596732 31944397893927
775418771 224447496 103607783283537396
712197900 292122537 89211953166629264
293050896 700479163 31076872095099476
307374135 685989561 17145153459275591
861247063 133927556 40452413418359680
91623627 908948253 14811669405766864
535643021 464728492 95767308112856690
679506117 321138585 142978792096357879
43225345 958781773 29686682875488418
689602219 311768009 133291536379690182
87554957 913391177 7311582233327642
526436589 474483443 225116306639007879
31567336 971083649 22921790234492102
936050777 67807361 42958684206162280
890429102 108639309 48748908662343898
291083297 702271685 156442008234149313
105182491 895277198 2734458136541493
586474194 411924532 1682987977694208
792901879 205364021 148010618061945548
141860093 858507924 84270825590271002
781928541 217652651 91751887737534272
791892254 207105695 82941617938888665
487445250 516130653 239895792647522109
283377383 710166890 155751244414482491
992835834 8381896 3029823735524173
971072163 32179377 20189027473331124
608316511 391383932 41468619511423913
962152983 41554340 14725109362771938
363457407 627307381 45051567508945572
463974601 536866465 207144248613586330
152879823 847943473 37608623834585116
254682366 738169443 124854323170195661
249864903 743733993 74773860579114616
779877383 219377657 139747928696494037
384113549 612195074 71484565884813849
944874673 59104113 31605019903740302
408785998 585576962 56411117428180568
465280636 534878625 186490893047825524
283105136 710755513 174686693656080199
133121313 869032001 55973261718786170
815039662 184059451 43143479402797779
123224032 877089777 92653639131592940
137699609 863777075 7891834181405372
15875649 983833620 8387905352262514
944330049 59487013 37934137206390576
449619167 549301149 206018074117892852
284419003 709356642 51723363031580738
253966913 738569480 7093127145320004
678403989 322119502 127794564438086414
521626187 478744986 62057302874423671
393164917 603691956 61000402535228894
704214555 299683137 92374084664125866
738827681 265487617 91504986541797932
585976839 413062696 44365869664048128
747382543 255400005 70570034803860876
765769322 235105786 128809946374063963
582055605 415476661 17074940803709406
963941785 39287962 24957249992362848
635575242 364540717 183619269678423963
530326899 469856637 146632348926278537
554574045 443187755 21200823591566616
787840500 211316356 134748436095777575
126664530 874131181 53082412003908301
702478067 301930479 82355828259653826
369166785 623145629 159890092055557964
354046747 637381249 77820710173623446
719822840 285609292 123513241284769623
409411269 584632737 215089300394332764
791216145 208332027 110608314091937262
90804999 910605035 4050874426813410
400682431 593823329 219922329705777104
104717448 895845197 25307731780022441
275918715 717479341 127385285083159176
76950497 924012993 31929202690090764
419724018 575745763 125294553369317358
777821471 222034554 170252663690002763
884397465 114754145 93301178641518064
787583329 211346306 82621887993000471
253906718 738918417 183074245016597066
666106230 333009429 143956168603406345
609341577 390684591 14042293746985393
921819373 80334961 65638923624503692
178052299 820395001 136376678668995688
624867671 376491573 43520996710204871
393369653 603300658 200235453052728136
135571833 866041871 65248435972692464
862290623 133548027 5918926100927998
354438554 637035226 71698761108375729
776223972 223665064 137577406228774636
343978744 650907313 153775844125537839
594029255 405876861 53580028985655908
894475535 105542921 59137338898203232
227717977 770705654 162079860163855476
533087225 466949433 35245347277031238
840875499 157244575 121576643242525739
584017925 414545323 232863610818632909
981892521 19309064 3951036461063244
374634469 619563347 74070489089070922
244865213 749643526 181823388605853195
468171738 532149945 67610448518949572
429478753 565192877 14692785466405004
723438101 282663675 15591551407198934
733479345 270748242 89774008200482937
979874451 20845601 3052720781317780
780517505 218752817 127520946233669940
108905587 889558361 23151497050916060
519610761 481384941 230584189392279166
917149702 84368991 2434660537903946
874946019 122549249 65181613682280404
695240720 307271915 27208968774459234
220006737 778674861 66948129013612170
982028865 19307169 17350066291561098
803378021 195686016 66074484700392048
816243146 183095541 95897113984529696
351098626 640515684 147466850656975128
189143217 805893745 139021400819052850
262934366 730321883 16040118987747019
760504644 239583861 11284323052313468
948804805 53049193 20344127892218620
551537067 445878577 184496579760039296
199292655 797541689 122296384521979281
393448497 602742436 225627268920053018
488172067 515878553 18332080180779789
216865511 782348073 155453784502250716
492409409 512331137 45223190619435569
829488045 169122720 49702785272309150
9953265 989646265 6421940854542772
114468453 883740497 59617322448623745
860741328 135024468 75263750963738663
608313609 391537255 185082744442624569
590143633 408968616 137777125111408130
256300059 737747021 147316773755199551
171564094 826387645 1855917143131117
149440165 851238927 122148762671815792
703807594 299974217 31684493967001116
130161092 871429096 19530342591828778
181149535 815928769 138018843334587928
892028437 107347089 90984961512378167
99378945 899692733 45128010563471344
427719377 567145879 208938704217002854
543452433 456501141 44816512659908846
630212285 369631421 56579902772805990
628173635 372008001 70677925343427882
830788211 168073793 118320575921461430
724205281 280793098 197882889413340787
928636681 75512264 28933211979526821
97477835 903317273 60543677969991725
9357049 989944943 2157509570521194
701179069 303070194 34354750948202138
52041025 951435635 32365618942514432
756439719 242459817 170434367295791751
755668708 243659919 138277689344457284
959717889 44498227 36150874719290160
523813931 476173495 72070705453051234
201841104 794985467 126938438772260459
515032025 485393540 84517160093041026
509250993 491521365 62020949365871359
108596813 890352216 82702331752926014
307935305 684388525 63693503045546015
190015417 805511956 49112803960021094
735482503 269302290 69518731181279816
344481566 650084330 103236582291623328
385222953 611175266 71942801630654948
386129177 609859724 72199388097349778
735928851 268973071 68783202041506506
709990048 293886970 58394831578496017
793364365 205110708 134108002236452235
769966279 230848467 12023344120549712
917317885 84046599 67778578745892154
363916327 626794358 92821142498269397
348284697 644611853 70178839611412938
913659631 88752483 69873576075826943
497709057 504897652 18547978032277250
421894868 574073553 166695690348998785
34052679 968967681 1029256451823338
72903545 927935333 27038263343367088
239080395 756530619 104773496277103254
519290545 481392257 134333537456540522
721555549 284012417 47244391823545927
578385060 420435917 45274586457785613
460341150 539766743 186678988720535697
633047495 366920473 46945209504005070
719587917 285757204 115842311243143528
402558565 591056945 24642305703079838
197462000 798941444 20958649076763752
621125693 378012480 30911927839828876
549681468 449328653 237330957175425940
413335015 581315586 77645144702159747
78392991 923086105 4004184073727701
390917052 605457805 211007435648351569
907821084 93676113 84375765265687346
453293575 545146063 130647327256042692
127632041 873885689 105584929705306380
413234948 581421085 168470677703230701
908972911 92852737 8860827035817316
914683681 87589893 79530669372712373
132048966 870289359 46915314732996444
502077313 499770980 134248853551328186
842979184 154851605 26291475615722228
392661261 603996427 79190270651605526
943982533 59747639 33119193336204036
421810345 574122830 210147957591928761
534030241 466275179 8919364632744794
210680173 787726529 23073746371487580
8907021 990822104 36592284359620
906731981 94680585 78301592462817394
730389024 273330201 84338972431515701
820237559 177163345 53082036676996106
322211335 670955674 38053514669635085
579239453 419142415 202539803148838660
322200653 670976162 72519745613934314
977121211 24917073 17698399859720458
815030755 184063486 18497085322303153
57490028 944155768 26007809819460678
51364847 952071482 17786446485888473
636531874 363776811 31004825953682504
364717632 626064263 11437216323371322
333582598 661092165 136276282999220823
325338521 669184113 60317474477361325
927662369 76139663 16976961591147264
917894265 83661057 43984766372364010
769830601 230869357 97709301578313940
514671656 485480166 103931691272887385
173167620 824442445 133345349231337999
521586756 478913131 85321873607152967
164363529 834051289 48270343196197940
385980929 610140825 186745445889540859
861105639 134041395 73444553133974415
840513612 157940458 43638601277041094
427373173 567552379 219157671793814408
845210907 151672251 119273175498606309
682304123 319448397 17101004882752632
675704495 325423526 102819923553170483
995623889 4517245 2521912243393546
231170653 766802905 163365955039346145
570950008 427765115 197393641702725645
426139429 568143329 62657457301185065
978079561 21896085 14962319809174858
915080401 87140024 8507368762657192
229931773 768446900 54185022849330579
859159827 137055147 59976253234681341
261213030 732726867 162619715178429816
296951521 697405221 105410577535663832
55262637 947478882 19821951887052893
979007281 21376679 18751287291218776
254803417 738144176 185254561668642577
805427657 194408281 136620700471854248
135409523 866282459 93571904410999704
18748761 981827881 4393814638484617
453258833 545146632 21925920682649392
61034123 939138478 41188471239795528
965559843 37240260 12367371600706240
928340599 75801966 21908953560753432
85790129 914278614 59832198151986731
751046171 251390385 65857981996446460
492953579 511615563 108315344976450186
398382095 597047380 227154441622686030
360902907 630199745 79822726564515072
591204407 408109976 94163657421151771
320094309 671940429 203525470011816304
891522657 108055792 311525674543075
842401670 155901877 85960183614953533
138536412 862524713 67645933727198961
902403125 98451249 79563329551582904
155763073 844481466 100228621930538896
744712783 258073244 63463494555863299
766921075 232963301 40440152502669152
843547159 154125854 26066606239809376
410916473 583596933 99723378490382383
541104913 459810789 153630851801347331
913480881 88850889 61641192977704817
404246105 589449978 35190924584531426
740876267 263750023 140940499671789114
779058497 220257470 111260727462993031
154941014 845596939 109335524655471659
515841093 484845673 233117182832701799
405999521 589076353 33161435918857768
888616951 111352897 55963419673897997
563116842 434130861 103084611304676843
114257529 883929153 33334338145944881
454545377 543736053 75976227662452196
264757353 728771182 82650032093890044
365662211 625162254 178253128860693243
652989621 346541469 12713459375864038
883197489 115884216 7678364477085135
906810244 94491911 43037266849516742
981019289 20064781 15925245088658326
564095975 432793278 8162295069657139
783486273 215052805 124035719770145978
721689909 284011315 45472224723708484
293333927 700216267 184071307870649215
957345955 45102701 26714411128636716
108704697 890051993 33043992113617212
83182374 917506905 74447409434620791
777314213 222835211 147926370763657496
484141899 519080358 217602571593538949
43083809 959156950 16186141253672410
262900282 730412697 37111170912292973
500141041 501422987 125516764196878760
389255902 607089741 101470246741860792
441503265 556636181 70116041029713199
273492678 719394835 146588341384488941
840775663 157301929 122177768680071510
438032396 558670319 109156525706155909
662568584 335544295 217996217086135676
231871709 765736385 76774632644058852
285015308 708949745 108414649812634556
46309367 956264835 3685686932150430
306825013 686482765 82747929939413471
97194577 904480341 70554393538812083
502892805 499379939 42452254946452852
182375870 813241708 146354158855065133
66820761 935765417 3131722746123696
850281497 146084425 32638310355454845
276931399 716692865 4008028831242308
910305 998808951 733718448190997
646657201 352236061 41191804446895652
821388289 176337763 23129990536395053
714828163 288830721 88526822067665500
380480675 614773341 180399598788615583
70992531 931492633 40222847656068672
786013071 213328705 126106623253216887
996468679 3484225 255446654440030
743185777 261036299 27412475141965156
917052041 84459833 60928891043230434
783726434 214347979 148413627580752558
705972417 298058345 75725412551107600
767999241 231856062 112850084803037034
56993922 945285513 44429032458794223
860547527 135420627 80250029959576711
261421917 732474900 24514040998570305
595624098 404505463 127573395591055249
308693129 683216933 20907907302221832
960094870 44380925 10132761994547533
438827803 558233383 206834295832791454
996447373 3633404 1790423075111117
699336769 304697701 160401058829365446
811206273 189863737 7529433200906418
860754561 134901313 5158543144613910
13916503 985551925 2062726758054448
393375463 603193859 131945741298754001
69958969 932583591 28345933062424991
166287811 831795899 120565858086088090
628701034 371504001 6690684604252343
706784017 296996575 143614939615639878
584802118 413727589 201349841398280323
496966889 505609545 141437182944074451
366109814 625062853 98765908965582284
914538593 87692907 65040039983700938
476591133 525898401 125190502730815946
997078289 2553309 316979808660480
658092916 339827713 94795804841926400
675527193 325479337 56134977832841839
786917074 211698921 54510757183672225
29971868 972548804 20253114906939842
588832332 410835905 5214421567311284
60342795 940692569 54799927561635032
905714130 95609157 85406196348044317
665284057 333352695 13442646156305941
587059345 411428297 119480117760602630
212965940 785654242 58478141979778850
900162179 100082441 54067691089212553
647609869 351817231 91336949673231948
538587449 462675885 113489103324917668
835526833 163731217 81629791274627982
410257060 583813900 144892091025235404
654080065 345701635 112342734082021491
13018695 987076493 12204835182509216
173922232 823882542 90510200400296712
646193106 352564516 137721129987058637
265714372 728380297 160147973713048744
225005765 773740474 28760379237723718
712816643 291721287 40706725986768624
943273966 60339508 33489902647162874
361002688 630006112 104984731653368444
412369569 582096433 111248739408292792
324073832 669966817 21912276111837074
335191579 658925301 17054421566379270
141487433 859152482 68171060231751738
6199397 993968165 3862289472019015
527222445 472748065 247664829509728620
577721437 421557799 127623024667788898
787002458 211549810 9213505302311279
800636589 197821910 18910925714569904
474877093 527231761 203711690358084952
653304803 346339877 219538402435802057
887386073 112039869 63856186191016154
321779014 671270013 162515498542119705
667025849 332569285 184960989861777418
715784163 288259257 195889917275102082
972911607 30102509 23436726042810168
753107805 249250701 43256048061298438
498064023 503686913 163998529089202146
788695295 210304948 92562020104984677
727674801 277353109 42970863916543437
849137929 147300447 114233643821673926
841358165 156899105 3286371040422742
812105758 187886067 51838234420221990
896380629 103124781 13065699601674082
397761135 597681403 30130154188461074
850938369 145248993 16800622249535946
734931232 269795849 182937778662410369
593821305 406422935 217529068585914530
806081429 193253421 82579518974058444
870488639 127695695 23458194149511858
930088033 73687375 8675064509810687
929262985 74648699 46542193532269773
209632465 788541083 42039522351134260
299436935 695245785 177339959627863518
266733905 726972669 171005536822148384
721164509 284475907 97116387958489408
461905695 538649025 147194693029739907
552807851 445283385 237101658945246500
675906150 325082185 46575384283348930
704053199 299795961 199778594894913485
304995627 688151477 56162212325554892
577338547 422601337 156817014550920203
57643069 944102825 34745558422967094
263192649 729696836 183115653408354564
282024327 711931252 24596185918467525
946071197 55924547 34259145151191436
149420933 851376049 44408452518917806
589563633 409777493 213743041032889446
67364481 934906883 28243673111881284
97647711 902814133 2877394322364939
952178273 50749937 38246336510998939
180687053 816301115 81577339339599105
693182133 308384420 57187726865541309
674546697 326020929 135492494772725810
130446425 871290497 97515817806778526
499244699 502757989 217459734044104712
547873409 450445391 158952281204407599
59921218 940992934 21050851384916077
325397649 669158592 112494639624729602
560354438 436654894 16815493237653782
446099495 553010693 84239101723288088
249449055 744242533 159907640822053770
541880014 457923103 241365873032319670
774368813 225733585 37712392626622442
144512457 856068461 5507182469689333
664998561 333522797 202930776162369598
571444581 427246113 153865129037343988
517523036 483325032 5257998715171780
178124781 820388401 125599547426108926
108680813 890078329 46592145891408964
940743513 63627155 53276503665490976
143516616 856927784 15151753220418759
689299105 312429281 209986254392715846
582717121 415224265 868142159456964
754031309 246974432 139375570736850028
949563524 52231737 1523055743266109
397491189 598304572 31786725013839335
256456690 737706359 173538369894744398
597353028 402821202 15436648084531088
642294737 356527521 173887948193200506
743894689 260050917 187891176081902186
16266825 983629761 12732513658235198
154990566 845407337 28730515346920793
779097147 220199564 85780314818234462
885091305 114396802 97743368407880340
90022174 911443049 72181927233504633
772647045 227816011 167492358823145872
754624841 245421111 40286255657544056
779947805 219045114 129842824915496427
874374041 122919009 8786935470393682
17053046 982660662 16160143451324317
419623456 576230439 40917909319035837
50314893 953211649 12448060912054456
898796485 100924733 39065827212657904
36836111 966445496 24148487881532385
190615805 804937180 1437236662980295
438972613 558226385 22013137240534990
489631611 515080321 80379887455223032
835482042 163910053 40404661500823438
944434331 59459377 15927717368189369
556826245 441345193 128532599425039488
638243284 362371796 226756432550359360
516708852 484042582 219740002438253777
816780397 181808473 117669455745355102
171710437 826105455 116940819641717862
199418901 797422749 8814510799447706
736789222 267287544 12645109219109442
297157739 696734060 164129534753803274
824654667 173854777 29619499063857704
381652765 613683981 70477774864058790
129641929 872734769 61446762985904952
843579941 153909878 33714980577152728
246642177 748209563 25675044020551036
131878077 870425697 33017132456206819
82030804 920025852 45077036944454766
709655017 294203139 141357674496089250
184597084 810358497 9941403897055453
209995539 788121185 162003376007659653
796214383 202871363 84096786952533560
559374361 437609350 75207430662277511
263741473 729071553 24625365263777477
328390553 666525247 74142333280409486
981590270 19864873 3856690421288475
615210141 385423040 69894398743050068
611679021 387584746 71999031685856851
251797249 740441412 6144031437253031
526217662 474597856 186074106087496785
880626373 117431371 45708905458402968
104970561 895581713 73940031898783952
570676741 428535063 144347831117565537
40286749 961732521 10712952756326828
563667463 432865885 198708051124438554
559683205 437571273 113862185906951938
773841903 226864305 103742842003737770
147117119 852625740 15133783445860667
173992813 823773441 88122683696019242
824534017 173958433 56205599520355444
163114923 835955895 125379155764538542
275124905 717932833 114945580101019551
992997729 7965719 1645940769312314
49563032 954071033 45240163544053930
58712476 942851063 39496376802818375
421965917 573493213 163541850812181496
164303469 834141229 57639493587331500
512261689 487190061 235474775991453036
770355537 230224959 8708636359521276
886261319 113360257 76269127710760580
454181065 544499191 129202983468862020
890663777 108305153 64269403484252670
172015505 826091650 130564510106964332
864276187 132412642 46300704316099907
560540021 436153349 45240346485071072
553339479 444823741 167733852562850587
658249342 339729312 10537554493912502
768044041 231821400 40105203843613232
293501998 699776298 73162576558935623
362884725 628407861 26126626522650552
59641369 941199877 28354923140068157
912318949 89822660 52844301661374418
48523620 954508931 41637711633595241
229549719 769392369 120837298179150315
164211463 834830720 135593007698844956
752363389 249944769 81621993912690010
57726033 943650115 31175197837072080
808759165 191365709 80723640376356955
782948873 215724896 26800621215984121
808537483 191611871 65480288583458883
316729441 674002609 174000213203817116
501858630 500462507 119788055560923924
710383125 293309502 49259004162798120
452746761 545718829 171557301289086070
819488941 178478803 117761094536376496
448086095 551188494 123757336455522799
991320582 9224574 3373380568035809
217594683 781774690 18991935865813378
282859329 710929939 54180483493941559
117729529 881127425 60843274041291278
856836369 139253741 70315620339837658
740257412 264182377 85989508680932870
436145569 560299741 108541017454994263
754366605 246258547 75397737223696904
305383949 687621257 92429526212865437
837385671 160723133 111116533369505678
241922589 752238385 64390232103280362
245257947 749359783 7898916381098925
816367517 182470609 137579847719395385
73861385 926544497 25923867310242574
136274249 865528491 56648270463697174
627063868 373092197 12400644981758889
456311784 542753511 209713565128285354
174241265 823707811 94642741036290985
136135803 865657665 57742539851647010
502043152 500250597 157458134974086975
98703713 900357457 23659691157079752
542182384 457741709 123798485404290314
859180315 136967000 111093791973720103
305113114 687798305 121543720024626766
677426973 323337775 26866174618543274
545137170 454816869 210602374131014427
888505925 111515318 50868852644824781
867375817 130592803 7869580228046728
84717146 916085036 1368703882922000
883731332 115395793 93613100549249470
344160554 650768541 8138250748499690
755834865 243598901 43698909146080792
388469041 607270947 205466541878219678
643349407 355335604 39503585985866959
217247661 782004657 16743558308967144
478423141 524911099 89934684482643104
756050672 243359753 90116511773275631
932900501 70423191 21682007985143920
72492835 929562241 21942761988877338
804392151 195371045 61209039644758303
66010091 936275665 57319726951408840
839596579 159595021 81862605903280296
958047616 44834331 32396040681200498
768418209 231665346 71480301008490860
14131145 985392785 46966517197650
322295833 670872989 92007686154995344
47161077 955759773 41995624649412042
494007540 509871630 218387629164344968
841238231 157069175 114351812770637511
99155924 899854116 49918956246112250
7411472 992484013 3988940431919277
746577019 256252113 129923725211434828
235119301 761890661 39907714095154430
936564427 67179673 53006704148809584
989062593 12122705 1090660511399705
945469839 58189237 8048027632864457
140467444 861214383 4465020073889994
697513336 305405717 199073487786586642
831479963 167364347 31308714870167880
42157681 960178625 27418348945423506
107830235 891067353 39479800261302698
832597243 166275969 121464057976622752
23551785 977955723 6678960395875532
432431805 562047243 132718419572059357
172222271 825247569 51420290740628685
184495083 810419002 106421946121536262
740858733 263880147 31034608125068457
686665277 315537589 91623981711265608
66464165 936238529 57663121457796940
305578435 687262053 64950577495444646
889627509 109716952 43504244808235161
250858329 742252488 139586732372863794
122577853 877401865 95601989856414484
722803965 283427551 112394638205056215
62097541 938666690 35900898682227181
72802615 928558925 37886387941523903
393311133 603626329 26472629836045172
790367985 208632147 2912301878547888
144643642 855939277 31971186814014
821461425 176309835 2198567026022712
204818500 793243969 111089428332718951
251809084 740404895 40745947307503865
249856745 743845715 99925312917504677
612685475 387215963 207052605645976802
562829057 434280700 41220877677048192
483526424 520294225 196300102382351215
751759249 250430459 102916353508666086
492592735 512314489 25129488743215832
335455795 658417992 167995025031688089
87371673 913591598 1449799630436165
461904691 538784765 83988332617312980
715752736 288327547 13612059519131713
659884777 337071697 37227606573465542
560753057 435610237 228385405985743572
174392329 823410344 39641590254211711
217394089 781782337 74187658257918322
123982849 875941024 31424797744025702
492114973 513121565 233965186731681419
221847233 776785987 73018331473222733
757036065 242318636 69367071815762327
47956113 955241111 2206554769530266
854529071 141826833 75844687299763005
248424963 745561875 26113474378019930
809336686 191107888 88194416348454960
653588911 346158345 18501431829793516
256931257 736643423 51187322266867590
74872537 925614213 39615161591633826
935702799 67993065 30566818106340261
169796247 827945123 57024657430496732
600653117 399313045 180347556589631500
498498241 503181871 119303910435317408
71746529 930056897 58226575892917418
980725523 20239301 6844086501355036
802592093 196668373 68057068302559194
2591722 997211193 1344942607162828
325641676 668349916 159345213786912573
528668551 471567697 29881619147855483
270176721 722905500 166685414255436230
732346597 272492101 175562092674792894
233830047 762905121 102408412664088995
538429103 463089065 62238076595982370
958637281 44657365 25691080109245636
87719918 913123481 79266163069013927
553697644 443865905 151858442021509492
921446039 80482495 28592558831378410
598592661 402261345 49870980898044192
679160893 321495569 3721500102727520
242826475 751517321 148217768918340667
93304426 907101391 31971961782459628
562233157 434594509 199578429993649789
205303204 792414929 70111190855071373
31510785 971301569 22495372004140366
601472937 398318114 230151057221120999
20893050 980090715 2433099989003932
248164701 746157723 80584725308534112
847413236 148702517 81824043380218505
79916959 922262465 65801511473430846
29868257 972688529 18199007862235304
771628677 228712089 76133293329213040
656949701 342131000 97670782248404166
917271747 84059394 48574907403047014
620300113 378546003 182542123758652136
376679677 619000077 6501884548766894
149550503 851221573 72407365421520544
432115904 562608876 65766551543458857
934831507 68626181 39219539782190792
227673923 771059009 37023889308228245
332076973 661608439 81679696091729494
154572469 846492611 21192032443692342
965245445 37493973 6093545590796448
473752169 528537329 186525969701267254
580376241 417528923 124420176121694841
332393702 661425653 115348928094053039
570742721 428056345 221240501774936348
963908252 39395055 19361633818656017
566179959 430797815 78394991719407158
557350940 440460616 101057989689225484
668121168 331070407 175630325930944445
401278976 592750129 67349139781429405
192072591 803715553 45140629904334982
221219629 777819646 19678650369018109
910955698 90909681 68938581021129963
747447114 255337499 178097652851196640
424517167 570490089 109506315452065243
454126273 544757575 201565463196075328
910373669 91378017 67724334240979647
637633 999165805 246641916478642
770699246 229719697 159643546985863693
703425697 301041761 186703011286419838
494356729 508680404 12733248442292836
357042748 633658143 221516777376975413
106993863 892687521 34812350308326976
293374158 699879806 43841019093022227
732629951 271796831 49803207793212966
905381441 95858892 5546116972809384
403635879 590030285 104842413124980050
880771950 117385861 23563069455170419
492778977 511950151 99850698290330672
165155811 833483415 132874187215032194
81889785 920142110 32822226398119343
576051431 423618785 214428851095224640
181568066 814987211 44741240282809088
356228484 634596205 140145866970942591
521062397 479392269 53524130267798655
632407543 367560025 82247936421163204
609104615 390841846 95435078338495781
909442209 92680381 74062616499265604
676219013 324504303 152713136221537170
851735017 144591313 80913345404567560
91507533 909023633 66345865717537304
681200753 320348051 71277159199527735
905195833 96097949 86014356396776128
863006871 133076763 44427316137120697
843211493 154795945 25781031996726008
179094184 819265019 144032608456901052
893055689 106170537 49041672885805168
832026113 166917080 62954908889405013
997045032 2574404 1254661247887959
181888324 814641619 44517507793361740
483889329 519438749 63853375308430858
525008957 475231362 61564973837871388
739986281 264348473 95790452088197411
733228553 271062543 166127345753150354
966745010 35723637 5848525626810496
692972355 308410947 99003300885096919
457595658 541882214 145384665411539287
289001449 705288049 30668112347738211
121699055 879239280 20170822140875154
945362101 58401786 16775482539617783
858919948 137309110 109556854446825162
510524186 488882293 132890168196840977
312237037 679390193 23388095839924950
301747907 691532344 155918633787237909
617086302 383482861 143723692340847133
66944415 935475265 30163076886302237
770845871 229345811 99729441771039110
259597385 734616433 156328931198998302
128224541 873607507 99407494206179938
732216169 272523248 180839477764288590
242407025 751865985 97063235949219518
374282457 620135123 158937388841977837
510055527 489276657 119611287400848094
438815066 558248696 26953341175724390
56371552 945870355 507721520587145
867719093 129708270 8904815583750501
542011741 457853562 9888750920793956
703650206 300206543 146140793294263998
260264936 733725377 4083433202059062
181013105 815974341 133326388808407795
512693937 486777672 164775203594022284
426840521 567994489 84072533715707656
920457735 81445634 40089169357080950
585285355 413452105 193471185123695860
200562197 795907207 76802203083035099
220648329 778189333 74502777335694020
993229718 7599257 1247220909149828
810957382 190050776 3054272878092882
570537953 428649456 93195625428396053
278123525 715880489 117341294068271012
872421009 124193249 73118785366360423
344481353 650299785 52590664733907208
869393060 128691405 73536236911808159
750394257 252372559 40786447475741002
940015983 64607199 47579231940394678
430834984 563721123 181083455766685219
297736947 696646879 76202384480149219
456552232 542744956 71615003008847996
379010817 616157887 27677842218425536
252906869 739627734 72373574133628939
658701050 338980353 31980414255544278
498668489 503172801 165234648103803993
897978469 102198101 28142756830567970
95589477 905691490 29127514249746225
275173872 717840561 133613801373506433
649114302 350005335 28754486146611575
529861329 470506847 140304553461580066
112538557 885721455 14850217518845374
857650817 139037857 16689096826594017
314125673 677634857 21546173681152299
327212445 667479996 154047433597953836
318940653 672895124 13808592383328062
220198531 778353363 40800645831041082
753213977 248810457 45157596146999585
308896547 682666953 144803351499591984
420418753 574434377 84110857480160562
868440485 129259499 107275821148945448
409084171 585267527 213869485564812820
719644985 285656369 68581239848925924
326662273 667629324 171518972930788621
640566313 358026725 124401509374482743
7395396 992629143 4732352612368343
876851799 120915665 2843942365222138
251484640 740786435 41454204239813999
9021441 990769949 2503382260051808
560760197 435595193 692225148602822
297499113 696651665 91339970265326246
970090496 33797240 21679583353150397
509886724 489847633 30007006219022607
900369397 99587018 64503134781193750
451644681 547239518 228043333234031966
531391126 468551529 104797431762879949
452522415 546126555 4450174582348770
268264197 725149981 76561030881319733
444595889 554176356 86090585703092826
115375696 882961119 90384439423772307
269406137 724177345 22187585968267612
387361538 607935878 166984162137486158
766276208 234639961 94591136944921378
973037149 30077058 28264078216096935
136095233 865749564 76616063185564318
880492895 117597787 7205425412734600
137784161 863535049 103622656843081937
714504797 289486695 176570932677006828
738345009 265702983 76909361763983256
204094837 793589703 90314515210464813
990068929 10726735 4408562104437260
598891069 401627761 171592807829751276
711914773 292166673 207780878012028759
953425761 49809319 40871239723935376
835793628 163241369 54910264059626666
691022769 310450287 12829365265111448
198083811 798298277 53379614529013160
498462071 503256459 3482691419607182
627399225 372432525 157301028742730136
481396045 521920071 70981163284227619
332007319 661752253 31968080917503200
421863677 574089345 138676392168466966
990682385 9307919 2910754382549152
209900961 788147013 22832277512993414
17705752 982382673 6438420615339985
947296651 54226789 29399733643929032
23441864 978134186 6785209252592737
751937761 250348883 50833219868870428
651050655 349014160 20189243875763804
826946031 170883631 36774209208591586
236756980 759809601 110037840438109981
288992811 705441869 193696410385081827
6159813 993977471 1163647996040744
871567257 125818321 84590533907056178
492070729 513180435 18142036906081881
508017269 494086257 152193132567345392
598712249 402114721 231872372784089982
234378921 762291425 30834337182671982
354608849 636691613 165459169190950210
625973089 375300478 151538012518025654
225263361 773453209 25426596115807127
77468315 923591591 40614066397659936
11513501 988334411 8021434704027458
824310299 173980161 129869027912726579
410905789 583646977 114585266348738616
476966739 525621315 55711984877007280
142193952 858368639 89427896340755264
207670187 789259033 121421195331068068
794882561 204479328 123092261639963523
297004126 697355409 130222158625176719
22920619 978473005 17473550597622415
690492761 310906983 19867341332568338
744677965 258113072 31832067068715043
909664634 92583651 44762759500238597
230903453 767189089 85733635741866410
253396558 739364097 116244702676743274
961855681 41604735 39937747547893612
2934912 997003935 2001735429281730
69016635 933154585 21480810985446080
454146225 544748141 197990010658803070
505352050 496537800 211328388955041973
449846957 548758942 215096112123452515
575193841 424577789 157722955825920400
131558081 870752848 65483338808398928
842580417 155473537 61663460029002625
43750257 958411009 2998908546423544
515079956 485290487 60579561205009733
520005077 480962441 154173469744777978
160085064 838890717 11750253930093511
698464767 305077759 19356348459004428
640515453 358191810 5127392079928790
844288357 152363937 83326884193765693
698552222 305030625 57667245202312691
343804740 651192454 64611770411453267
370051612 622854335 204403711479887419
442321681 556033353 63000004104674436
110664361 887210977 73558843441652068
83853857 916889585 16190959251583164
519661825 481376591 33637414205340825
724007987 281063828 117793719420121514
977939313 22423445 3425230061216698
54068593 948547625 34024277917112040
868904125 128893981 87308051937864685
889745666 109443687 81855578106049933
328669627 666203985 214585912735006972
715739323 288378192 85306877394680852
354774466 636663917 173317780723634725
901175925 99029083 66819639512037390
699279488 304865536 88447126076336052
146170209 853340535 83882888426737972
851149748 144932949 113381993225470081
432239937 562142367 27324288769118940
476942463 525729213 163925504056875922
795673655 203295078 103103823403624191
845200453 151878993 10369358504583876
325129977 669192451 67041140594003767
569140596 429667309 9409940996113453
425493589 569624433 177339811137786848
606220811 394018523 128527846234164770
215954901 782893477 87808091395811433
310022606 680748713 39458098617242081
117693563 881396405 85902116886046832
332910218 661288040 101111610557492910
766050812 235085305 156282775152310580
174716423 823145903 73250754686265542
312114280 679498229 85147258958069572
947184179 54723252 28222802430413558
897891552 102317041 19497208325843170
842177395 156040536 9594510876553675
829631033 169104157 18098251774017799
403568357 590143411 70164190985320304
258253889 735685281 26158511336786584
783562375 214420595 102994641876278463
962978851 40031345 36741894801651520
883319569 115784301 6852307181137611
464951723 535172391 128409269110584850
909432309 92782885 65611883941068975
721805171 283984947 157626585343356220
510009801 489367839 15577417766043339
531886773 468059841 121507005705378274
296358707 697526849 109120678587919135
781456363 217810457 167614439921253772
923122512 79088359 71583704446092410
157369052 842696973 108725472869814244
287869668 705814379 3202623736677440
501126489 500738855 240468764950275170
889458780 110208337 10091066169969693
459613868 540362107 243147568395399656
87814453 912951356 35836644380291157
614428741 386177540 66224565956588757
927978335 76078696 30293184962340933
603122222 396991491 102558738782319954
869629093 128610471 13029844236622624
724883992 280501870 171199383263217786
664999673 333354985 144329775711013630
635592093 364475637 171770303820008170
104589709 896281274 58708370989421076
819173495 178534475 11959927325854946
325966360 667815169 114508596939652281
170063373 827675278 586852731974803
106759696 892850389 46975375930243674
703388689 301511333 171345068716069860
235502094 761363225 108099603508315911
65020325 937127308 16782600306480782
555811769 442222223 1409750687616002
640176695 358913103 32792906776754889
499178305 502889780 158113053517792475
68302731 933778922 54871303678800763
659622701 337272505 186774736441237468
723155633 283252179 153636079488139041
830764055 168093631 48299987747503272
319152407 672433133 95457315341230114
184963694 810136710 65332846408209604
689638831 311554791 157925123039614667
929847156 73750451 23421045615991725
946419768 55590623 21439499205737867
50596462 952808897 42124243757250394
7490561 992330541 3881068036594017
623899236 376829893 134644437258401137
652670087 346711020 187798278168154333
106263110 893358247 44375105494931986
743692517 260646564 82447752325837202
584666213 413837753 221713685034003073
172062078 825649138 75087316106840306
597014655 403075757 189178293233127204
200671257 795880722 151360116928274419
21976066 979419209 13066446364121086
270250866 722789228 166848910955334879
616539523 383562794 232523772954270427
82149185 919825567 37644789699016751
343507594 651467121 75614831245554792
707651547 295684580 87234971103981696
516234089 484283195 44570880630381152
255095793 738120961 155333159099142050
766555336 234559665 17345152401646623
879736556 118065083 17192683589353110
543856561 456282949 51558387837032490
523376723 476489193 128512246273769039
613962717 386514425 163950336657800798
84637897 916476905 27145893832570157
143738191 856820598 88854742265674085
521567839 479008668 147238268766032023
147125567 852525100 66876798146868080
401554135 592727834 38346493109404825
483500191 520301132 109672958472441436
59896232 941111613 7014943682905896
64422937 937275199 16681802401392656
834077969 164838781 120926265573739840
777152524 223034311 168221527642003991
174778866 823073858 129741901431020354
940537065 63843233 40874599041063830
779891988 219346637 162987875134006278
670634583 329626290 154917355024615577
611365020 387643363 80002899487032768
775460193 224306796 61709588735360429
761358280 238636905 79115687965586935
651204652 348880993 114979318903119585
628215551 371900784 87590783250048935
382272909 613065061 14780070058074194
729116425 274919317 46567105632943160
100368514 899327161 43282586974126508
287655693 706163064 188050465648482325
914247385 88330913 57177369943137384
622745649 377258285 81167628593548659
500634665 500945447 17969398627175487
905071305 96136559 83716409141056400
634481509 365450493 61063199006136320
531491481 468495271 139908775667945206
73581784 927190999 9340786987402663
879585483 118391290 89440312499008874
879487015 118414613 27661744380806087
487151945 516648453 224589738967708234
750980635 251500137 80706923672878726
988698193 12571841 10009033351014980
508250751 493061893 239638845900008364
508311925 492907514 158772962913683671
122156185 878285628 43448517536675029
241603303 752776949 45189295011105312
615122553 385424721 143783523402206690
269817786 723414169 32957258247414136
235419507 761569009 38033428643376060
468251691 531975705 167590881574747950
831519587 167361123 103890952587010232
41651271 960599909 33013121397996512
971599812 31240811 11067829323092346
584064796 414460544 13616954093843267
785400526 214095993 160609110263094286
208752725 788915585 67801163362686478
505287337 496539791 197508708308690990
943703422 60138845 38146018205219398
372733134 620707877 191955992804307807
349026817 643502297 62726047961814128
541756531 458000285 108849522414260408
239822913 754336619 47442456959459477
663708056 334481553 140736573479858717
661040551 336322608 124702154433333648
508900525 492401727 187098409724539524
422832625 572148375 21659407853827380
415986783 578352449 148673151889478162
315827905 675944591 95806848435173429
27330438 975272078 23571048937485507
288857579 705458904 35255109149024824
467577746 532377888 30496093667978150
241339721 753459165 126025680396303384
783163424 215348721 149574071938382437
309723265 680820913 2617977199582656
356455985 634347443 165615461331024475
214748425 783741534 88162193314032558
286250501 707296352 125272797269505594
251887105 740367751 131435378901895528
760885987 238957066 136814999100285822
256021347 737761818 186467884210174687
138473473 862679518 43533167512417713
926191031 77148606 42822808041694272
276949989 716610005 83213758177727071
387284283 608049222 57140669580060135
115887163 882548801 36267900738861452
812007171 188645757 131409601756444694
856158335 140159643 27743854542625272
685179397 316959829 214237494529216732
741288256 263514098 180162261640670890
465448701 534668855 188061345309630612
122419457 877794309 93985387899628780
655010801 344277819 177242247775991609
74237522 926367253 41326899736947322
283810923 709825417 65295828112707741
961244241 43103165 5564038232530064
608268713 391607441 90133108166789855
402535417 591117536 43314934592319318
157795161 841638097 29548909730047192
663333409 335434409 149141375280861562
275349640 717838508 31880079239978090
469098505 531458449 21588215167677958
753288573 248357341 135842262586000356
901322773 98864209 14822627942551748
315119176 676746569 103921383415641704
628437993 371660990 182625585952235491
295643115 698535873 125822173610862284
589265117 410674636 213230058699882457
598197697 402483545 205487117959146054
211353703 787401969 89544773994068328
906058361 95506705 7763560422562072
160576129 838312259 53196092855408804
916352349 85548323 32582473298896668
284507690 709269831 50893518814825255
295293108 698558349 169433577868741952
955254438 47761473 26925344865504696
979356975 20949380 1676557230761904
433164409 561605613 18127836273129941
945544396 57874519 53000110491488675
741191566 263518998 71033668396518304
933711585 69885064 41918029180730135
736271516 268567297 68035332127441325
145428155 854244458 75192040274376745
685215429 316949129 48105820347860188
277423931 716296625 127269136286984596
507284376 494593327 228899394178894012
264532926 728912489 7482384401204656
248590953 745139281 65259604557914305
850148301 146149963 93137474684689816
595722548 404470230 15579320972281627
330548562 663876401 86029453469618603
594924942 405213101 103777900854171496
448109711 551143647 144156710668570202
351734133 640010641 122833022153403910
316744513 673962662 174475105788252937
553345569 444655341 245686457216644852
898336977 101954956 85906896127386466
970484547 33359881 1550120847363540
654094295 345296115 67594190518615182
335866501 657868026 30585682328608076
883746657 115336989 1548479961566786
929680057 74113703 42882596100924651
640490865 358298113 167106488197322620
789758113 209402715 110190457367672974
590327801 408522942 107537576885994668
387477565 607884531 29809966638780894
863323651 132885825 112962434213077355
712919123 291460360 151897408427771342
232886339 763867683 1226136330842162
839186549 159905005 129018480017868513
907360651 93906817 54133812201480260
928737103 75253589 32432180085643789
682066455 319854176 58010298437013013
921206725 80577463 72999375005335760
383781632 612339542 154191328165535403
512259149 487479521 221941794516023526
198564057 797996902 4959618649215791
939426813 64924193 44568386926301608
35651524 967651783 5680918670735404
44237430 957693675 2907311868628584
898187337 102017089 33906573272694198
593985987 406390333 44058749752954248
966520024 36158322 20632804472448188
725045839 280456417 2233854582051037
723751466 281441065 144982488579533607
739508424 264889499 31442531865015172
847624454 148187974 41981566804516706
999368441 411461 320739781423072
564225227 432558652 214833756360929
238074833 757457131 102969835945989109
518592300 482427960 202350710088438505
753538029 247743479 119791582359766684
134742441 866863133 2819232077324258
780697820 218467241 3278081748537515
755939984 243506449 2379704542945383
423771265 570870113 12201316208827058
607719203 392086249 36315660308046264
773963675 226787483 139727138317856716
258711870 735436545 92578793028921243
342522977 651983693 211066493872317213
12723567 987270069 8092242128901560
56638921 945857597 1014170976064552
787815439 211330669 4109066718086204
331679539 662694413 101159012210761681
216716939 782381785 52901214074535572
192830769 802720921 68118108184382996
327432129 667354849 27259175028231134
588291401 410967449 72415475123108044
840154006 158383808 116738229790919347
175305008 822932189 72102030720974868
508346306 492905453 230691467926448199
732191487 272548221 134812647170574853
536495879 464308740 47291453422641771
870393169 127964243 52437819694251636
621943401 377784610 153249156123887509
331185697 663355708 196120191814243039
933973657 68968935 17063914255439497
203663851 793824157 116270209884292121
490150249 514671209 179007942132456951
842422136 155674593 51567957776021423
440765603 557043498 46047781678399633
976270299 25995765 22799478400137440
678944601 321801446 3372865241560277
777217156 222907381 137047248673096848
655457462 344072113 215603934380959556
283715982 710016297 92684273757971839
481303448 521960675 106433398009410127
47641969 955441793 37832214454139138
343860353 651072278 80732161280694238
590326379 408730133 233980582781421680
254021728 738467376 180260398749171232
102409045 898197146 39830615784052158
897115470 102782854 37433390084685744
351117028 640486057 65395384759028098
291925279 701370069 169205448106636622
731553549 272956962 78669797268513285
683046332 318342698 58884043501596912
501939425 500251141 113487132256417671
28124911 974443201 14048362221056352
67395977 934901461 29186960109512229
402435647 591377879 13555336709511216
447837833 551405799 129292439623125118
48142765 955028592 4605640384901331
246797593 747717674 37630624788727600
767090737 232613121 135023837710565186
944372715 59484032 42202472332380401
294236449 699255270 161131266444169181
239288705 755926746 86930118576833951
936275063 67454093 2347214948802512
657819205 340236266 75785088551304009
39082393 964081527 12991132786776554
108342224 890653009 65466511571955750
166176002 832302415 1335733142975454
786725727 211817442 79564678496567761
845510743 151262529 126965376933001992
331333305 663142627 67887106052248748
500154222 501086849 27865641219171841
962928940 40090063 19585411797071459
11848041 988032977 11462497172806138
903895913 97688478 5465560229527398
952299745 50578881 45333746987575307
472470478 529069717 19951023490413975
400801475 593591491 116880647695179666
791403833 207926749 136234583918519624
949549442 52598124 22289969467964767
981808344 19660971 217243662721683
95557953 905851755 19576908418395861
630038241 370218667 228581999691342096
235655093 761237423 55230613326779388
114106757 883947457 17171550427015158
252406791 740019575 7854121701997490
64928049 937151040 10009345348575109
87993301 912661239 39441720243453029
612907285 387060941 212614603315255652
734386017 269970533 123123592144264367
562316811 434507063 73240559755717499
399085581 596045394 97746627697800302
231653231 765956193 95976544687471542
889610711 109784494 13508055798544999
12464853 987727973 10516875885940706
885272334 114373691 68147091337453771
582648041 415279937 102319091258925712
721120221 284617703 158210163270991803
43163193 958864133 30737115256598649
107525107 891967362 11647206126319990
851849079 144128223 116064408411614290
291678108 701389489 49832449446437596
513659816 485864160 152945719188662914
842738172 154895071 35568701218620458
800930282 197717321 15164880867835718
581191556 416458467 107194639572475649
782589477 216993335 127373499175999784
855572016 140834892 25937318247672097
888997601 110828801 94715386912265977
313823089 678004778 44075981925704257
97666730 902439663 83485338637140
97586977 902966271 4832460898800981
387514240 607877336 197645853275413741
82365345 918968512 23148803817056271
751174209 250618196 22514214890313642
818672471 180021185 109892392866218692
893058399 105947300 19776011163378259
112084534 886440625 40460981489894990
57013399 945254824 5658602379547338
934752537 68652470 33203128917001121
780867811 218446745 115664691196815212
462348879 538051876 151249781360770434
717241140 287315249 142947298229981150
153911387 846893217 64727822976163568
788737019 210172243 16948239211230420
949186525 52766911 12372554927482211
57073453 944832218 45623822521490240
58919615 941629273 13142673961657320
256683137 737067593 65406257754112407
73110549 927871962 54330510327615465
888177383 111829273 41364895387965808
905957217 95509295 59996716654139064
840756434 157410801 14315214932096646
478978845 524607500 146312326254767110
711675021 292595321 106623199617628351
556106023 442107071 185079180504816950
645849491 353236953 227548696612168027
677530541 323198360 70953184891138653
345249420 648973689 49324187693472753
475303057 527054300 180795356180967475
614363009 386246731 2481516003519278
534797921 465806135 172648054438541138
462611748 537783996 13069457384796820
22175137 979180637 7610210185928144
857868929 138809067 39156019649605349
142474810 858315649 60130033630877063
639537576 360009741 22557884774098735
331835137 662420855 4012500731093727
888060313 111926705 29126390019478412
576149545 423544397 240931648783346560
865808358 130949837 24577914341314017
716138733 287624623 81581557993192136
496839771 505640865 9448382486724775
287010857 706886914 61139225587462807
334860831 659185961 213893240377176176
761188681 238820098 73336788074527589
981717515 19781340 11801518625427016
728603655 276152497 98248109500977485
956183977 46149229 19053039783432420
44275633 957641547 30066285669007381
248343401 745689150 97016007516055290
266264801 727588900 164454153218373436
3565541 995998567 2975866730202106
74725237 925811545 14379048064196518
369181493 623046465 155508904569334364
817494161 181234252 9472732205618895
233955428 762429248 90439021236241586
543817417 456296827 141659187210571915
853814025 142358369 15387517312991586
110565473 887358723 80946578617244862
633772638 365824731 223020459795682898
799198569 199770849 51955985800327312
350354065 640976273 129086791990739106
151563365 849431089 51869694014123494
521528477 479100134 220761999980080627
922638118 79700129 36948737858403445
596240357 404172083 199859831727420352
309339473 681958535 95408103878379552
688473385 313714703 197606924102996623
778157697 221726725 167426774998022812
984875878 16222245 12554451558107184
65229003 936687248 891707406030225
360426721 630743273 33803099067090994
685605412 316860239 54033320452091711
971112538 32132579 19222489377056200
864474713 132320157 109235206071195344
308088956 684006400 180391876678828016
658966871 338533813 27071087041659332
816078465 183283801 60854863320410960
995221681 5523401 3458470446698225
125506235 875151366 88247521151981477
826459399 171549084 36524121296245610
783401119 215076559 23800287126834151
118256761 880912189 11377816536040180
757383091 241811487 172688289829810503
294826221 698970615 177985387062423584
223531483 774707541 172305641700082760
917076653 84435331 58106974350015799
944491244 59283217 51071109066616815
248651322 745036789 18633518762448761
10680911 989000585 7034679518816348
494227609 508869457 27627990390741122
21162362 979530323 1975878365581042
658229889 339786332 16565666274268953
652577309 346731471 121752722754837848
243473555 751019501 1614605944447970
210865555 787682337 43434842546049200
370734157 622345749 134969530182215522
309234534 682104541 195232339759257007
740138263 264338505 194948513130317322
980173232 20789503 9214594347788376
929531475 74205332 53036407566531178
334726177 659328531 172815509958640890
901670913 98762809 84804433474477411
838917889 160046491 102246975603401228
530742504 468966654 166087579825223453
915538692 86734158 60470012782188081
447972913 551339565 34295161501167831
187699794 807462707 99251854834840116
762645214 237504389 95447562035912031
827010095 170790177 22639417851580193
909959791 91878757 20449549349196096
658445957 339405425 155780112357839181
961687477 42605073 26387883332317304
740340145 264158389 54841739817627406
554226169 443319100 240560906588350807
87643857 913285305 32553525856267344
209511761 788594065 113057411425069890
373114257 620525318 105209257437419431
423651792 571069013 46471725078960326
320459575 671797694 134438956806399545
792540933 205474961 23988556304271926
337794417 655526806 180725519153398042
588208933 411076101 122006108963140774
509360079 491339594 69818708642928550
308997720 682557704 135140625602386854
488852583 515458333 230352987872343284
589399412 410377830 39435013875954864
829834265 168896213 48450771984191246
316701951 674277121 113816219972151402
725610381 279873021 174948275752458102
499264396 502745416 147859642271132690
414447194 579774033 215855252469383498
810348008 190666253 66884109951017231
653107611 346354041 132663592646210870
170365388 827459044 14999787981599219
654106785 344976201 40534685637472976
164244456 834564307 111596078357386743
937001513 67032806 23489599957834298
819142746 178590157 92972843640002533
738905805 265375887 165987106074192794
617217051 383108561 133267713146389244
237807951 758081132 34933915204303278
113985225 884100825 51230884899782826
70315917 931957815 43419681445351868
670366009 329897585 107875257452219816
453817461 544886660 184377689643858714
251262810 741163522 107560400837618172
625294788 376321508 574555430564854
269177769 724645341 89735375837170078
65158129 936708254 21665532657553692
727350273 278529494 45015962870344917
666623464 332722390 187299594583792123
269652219 723563291 109575350854734924
271322657 721243549 186575293887347936
32477809 970691701 14220702512535760
231205915 766774840 118860314947944153
483127080 520429249 132063895514357963
602572495 397040789 51671561873421633
438411579 558488649 52671632716289844
296962673 697387633 161797075762534249
150173520 850160241 117275637269070762
927995332 76022403 30260497619405117
418225699 577050699 59585129829080157
330059837 664600609 116106932660161504
222488257 776237205 94402724949587871
651285553 348401161 177309421083266206
72943781 927876326 34902293140028342
607620044 392269633 44371469931825889
900842151 99400193 14797203538311648
424700579 570061338 237158753520452855
304013345 689621173 134255760597787210
128847297 873299716 28672455437324736
337759489 655535373 62170487903858498
900385500 99532529 51724823023812405
483579365 520142209 38493385722726122
719716595 285642772 54481362038997208
719644361 285660530 114570249335043918
966171917 36865340 25738677263363143
185651909 809677465 95398842561638666
176294229 821343893 10979904075564219
182454769 813102617 87855397447897316
727601240 277921657 43809611788002049
204656737 793383713 2652307294281446
675517290 325752044 149459809881459676
746795435 255751985 75004830079422500
829157368 169278415 139230706770096507
561051009 435299616 160572350908813761
454671643 543526829 7799937108904417
919333319 81858198 59809513833633954
339139945 653955537 94646713049332854
877868844 119609325 10364653764581857
906532187 94847620 50066347201631217
539841233 462021265 132866456052782789
626715673 374118305 100373144727197173
858694463 137901095 85855956671325664
305402351 687564509 207755861261587135
656155265 342509589 58723748061687100
169439319 828494869 85708071639670451
129606185 872798070 2013481414092514
129348666 873200833 17302726963118822
700675999 304259891 188940720735785558
534171035 465998449 30104177978756320
766164192 234707544 154560151798622487
719079886 286533593 187415677404239147
32244805 970978697 9650879492524174
480103593 523039219 142967717653015408
202209289 794486079 52787674562600078
833975493 164921576 101185953362633445
163666707 835776619 15109735455468318
381719889 613566851 70734246318648026
450024201 548626555 167186949945091729
671738761 328216028 116945442277944166
628776249 371454002 169248407525646232
353092771 639381490 172989359219133699
908797291 93203721 42787678642753912
796777485 202381991 42986588330353042
54130359 948392985 2363746821411026
554210177 443464025 154915672419851366
753007063 249296737 64220027949926632
277008231 716593549 170298200989482462
367005497 624651145 166219874705569755
292084406 701342013 56703212012147024
896246564 103263216 80517999423101484
631557301 368694292 174621216059269480
392736455 603790405 98669927830703276
872103933 124293329 84716840498211432
826680053 171279103 37153795809756544
92088621 908326347 32337203966981886
484679901 518076515 15057721652020914
948709393 53191757 43062856154046141
984619169 16439330 265159538364248
932834501 70610189 200743861874550
925586947 77291649 19744805033832412
389391185 606839901 181572485560361612
97659889 902642272 16365822267248096
536291271 464571141 120007968273888406
294068250 699293633 43637859618170904
19946753 981319835 3814858315147696
558359071 440140272 74966643182226759
246383169 748653384 169091457769142465
308754378 683209973 10506335102970622
927576955 76160284 24778286622246175
851741096 144527810 48614989295794400
995061220 5565413 2544695108179758
221895630 776636533 43261902723307556
79921237 922212494 12066758060224428
973002723 30099629 13082065745978884
942806713 60758425 7935642263179788
572042344 426681626 221759197348782364
324639989 669600983 198639733668330745
503854097 498770685 251254225568567070
348724736 643850726 193145422051537783
492030671 513180497 154438530081003672
31279845 971655100 29694281689454942
497516889 505385755 229170774899842634
853834439 142266889 90992582357598254
117633941 881695593 53648399278075374
131374739 870832761 79911287637678171
241542731 753224385 162649505864687381
395509598 600643153 147399103159782179
503238913 499109029 225078301616289788
546341563 453208265 66381436604379206
237371101 758889829 1770766533227238
501692497 500466561 214215442192423314
331007549 663706135 26924852458597012
832028397 166515534 77421098798881972
159675769 839088869 27617984044039712
233775971 763135033 97696053643120096
90910867 910223597 65241340026920360
776979315 223329555 169132275117635412
367641396 624148883 38106949589970968
18848169 981600971 12880027968356942
792967809 205358228 116129895638779144
612987867 386795455 10833254300157618
498778069 503012396 235731729076057569
94466217 906395081 12467104270482268
101595925 898871819 68300778223877024
471666773 529569210 139713847412666195
978763565 21895171 8674507768695568
586993345 411690737 109482769916320432
962504735 41156479 230535262444276
349223627 642628583 63370985402340148
25096524 976795205 255720438965153
936740685 67120829 58095738136360104
990021775 10798712 10527090672511731
430653823 563974249 39133625562412369
606387309 393698695 12922214145298478
43829549 958290670 8888476665411320
881490075 116951533 55102829052122552
190331349 805127065 75350619248834190
618177267 381807421 51383017021781752
983203935 18467258 8285817368797992
941966619 61776496 23327761686039792
57165578 944474691 37139303919222436
103345109 897415521 58536705418593605
780205231 218920920 62969416578113848
935314727 68025830 26902367962215805
511992988 487618913 242770458193669752
194643907 801691223 145991718819372430
584658613 413929863 229603888214206476
288999331 705307401 29810062798274354
938552193 65644907 39798754760829348
994351607 6416177 1319414329177788
762644587 237599974 155156875694326011
541402271 459048621 64327810155542072
145985867 853597821 88865372695560912
186142436 809264633 107928590220090608
189847078 805575065 86052596277497698
577490387 422485097 169543877569605480
745946725 257108425 147928719399459055
97752855 902170021 45209223508482919
853956279 142233449 81216174323055045
399351634 595286104 237683402595045915
670427644 329860133 183142220395106513
46259141 956314657 16960211434951638
685141786 317192707 197042161560504887
306803673 686566327 14105827316301336
938444183 65695073 11977130693038344
439517459 557550593 7559472470925672
951508945 51155117 6325723772040605
735389449 269407037 4721462787558716
283203261 710548713 36174962972811004
499533325 502358929 86954517990170230
344672790 650033217 77172091165518565
933662013 69890433 10444775580163294
267543059 725815037 173924052222500302
68785277 933584870 61325730938949748
817773100 180989583 24008930886798396
684487585 317523201 7418635753125978
338629741 654863628 169933180223876527
412488193 581867809 89069358325263576
642683861 355828577 113188417360244010
262140033 731280224 175291071389865489
657720843 340382269 151968182010129882
281587003 712359439 155244427554481878
154705107 846111759 81388395238392508
455797445 542850461 135267694504316513
871869600 125078361 8666291456580280
271389792 720842705 50360551501771481
7966056 991529372 4099164431392718
829208409 169143669 127659597380033829
220886117 777969929 116164500142295878
487556213 516105005 183244360464409477
569003649 429677742 66454270122862750
714863064 288653011 77817086275000543
229554441 768990211 54082194415696165
362701733 628477165 28555429676146510
958911802 44642087 576652782300278
785896669 213367855 63988475303254830
472818447 529033014 191478407625258206
251515655 740697900 176007410878044022
851249173 144843361 49189744234729997
544430345 454971169 97764862009394004
386599331 608334769 60506546253497284
573519313 425467561 21174865924558858
812511947 186667745 117380773559344332
483029581 520507817 88260628062032083
477643493 525287300 139967445649447424
525520697 474971585 47390785953176442
755375153 244308297 139494704554014334
567610369 430247929 73839214941928634
968899648 34151245 8404617913575272
876134432 121133825 6317130788451367
315040810 676869147 49076256984826870
13487891 986173999 4126202590590792
749200385 253484609 131807263656412030
698163929 305096317 22533154939317396
141091973 859786303 120791901098208200
484248408 518687571 198056517121218133
59202997 941347113 43454677467075868
306511213 686631049 5947883816382072
257809514 735854290 26859954307421393
615718904 384799744 5440155205256947
495041857 507336979 6187476801041160
81149258 921039798 51714369345169270
848873563 147718769 81033620540033892
596529 999354505 296993967174681
6455145 993563909 2682973733832320
580498209 417187593 123447512861040716
720007117 285473240 24191052923448788
537826343 463625988 184767974027456215
848140612 148137004 28180260073878452
975722133 26354712 3490523175835716
481683176 521238257 143718924713373104
860699606 135130274 32917532331478965
635367376 365143539 197620234276029504
530505315 469656515 42834378688660323
682387059 319132593 87496646752858036
770346769 230600699 13063982022793768
526524737 474314666 231161219571765898
87749107 913110241 16994177360175694
569235683 429165846 174670750073836774
243781497 750654215 152219928941397040
672018463 328208449 108919699889231332
145363147 854642961 70655398140611758
932850293 70470583 29705617356556012
540670513 460779164 45434312017137276
67919145 934493759 26191524486057525
216665465 782467489 91992251271263484
895181033 104340538 33421550427081484
745141269 257424961 168061405423406306
937235861 66639803 27039349382636460
221220019 777756893 145263639466258010
946328870 55604265 18855880748814237
282313411 711543995 68381544659314181
298869910 695417662 71594778046599652
137133505 864167029 113903395495735528
965634949 36993496 33179697774977974
262985797 729994513 35375557166428348
972328919 30487937 22135299918839524
735866401 269073704 22150374414193453
654843262 344649395 135351766465020185
594671297 405286935 223276766469326640
974235257 28422363 130439758176370
938233093 65797609 18408490025589720
676197279 324750311 217602588234080542
530702133 469268713 94168553919993140
722742845 283718839 6697002563536982
988931094 12437988 3887164317716717
833692543 165092489 108447991324934750
26485361 975621361 20066412762489744
619437776 379857957 53649175257504616
653687873 345788156 12092198685800323
975964083 26286945 16999515857311628
240752275 753603349 75501892638354924
630124491 370123293 55858273140876598
255361936 738027558 146037394035630042
140549941 860765229 21481422282194992
390795393 605468790 24415319635830351
389055225 607210061 145520954188639352
191032181 804368017 61744875350547260
305504322 687466395 6117545645840340
219484694 779495439 93816674243052952
328849793 665763166 158504471835064226
948063547 53693885 19933936250887919
730207641 273852757 55660812090813756
383613508 612379817 143950763540919386
755297925 244643502 92916703186449865
937180981 66853137 51966404284821114
211035082 787674515 27499647276308668
279121018 715093217 87720973012932674
915826533 86017639 77769487724255008
458585793 541455521 69702724771719408
639743873 359429053 128136963219910626
194705533 801353622 154766727060989229
59352858 941282229 27276220538455314
697852353 305350738 16626262739365162
694973712 307413816 110997075388483409
919817325 81597825 33704998752945328
146038381 853436540 79933260680283474
547102878 451889808 246949151196673510
276998489 716598533 102606971422729857
642870385 355680545 158712045319882380
29720614 972767045 13660158005327014
996843493 2884779 428042088456549
917573938 83781537 61289795489462740
701122133 303202709 87893542973890558
559213441 437950867 110293167425994504
160377449 838719025 75669043539020787
124395397 875752577 2500356677237688
359357441 630866713 86230046175937082
231736221 765879304 69540450806040167
71406747 931021393 11725905010749775
46949034 955955240 10949834747064244
244424515 750093267 120756880429767368
788056469 211274657 9929943029890789
712931121 291134965 205603771124273274
998301859 1875821 579063922140963
794394374 204572953 156310985780566744
509993321 489435437 14766213751917732
931522465 72453721 13993455163204178
599976697 400437749 218664067097487408
82719131 917867573 38291131612308415
627760018 372249409 154783394590745917
895215939 104255311 85566497441904235
669734701 330791864 40919174044518483
648761871 350335589 100792951393942470
336306377 657514551 192149706739497060
515746301 484853374 62895534138645423
412446189 582075999 129976006499818308
413791823 580972897 98629730369588449
792406971 205916391 24655555507028600
583460898 415005426 31275910459341529
816002981 183419581 114163944002049310
988783098 12513950 8160639287719855
992829257 8452870 3260020480305619
382647309 612758905 159230784726465808
946247019 55857186 7892668215852706
274305281 718922217 120536228769799246
190085501 805403856 88603455347883945
262352943 731136081 190182123606758947
521836675 478297545 50108348627455019
463767905 536996449 117027298734573685
546528461 452139667 239483022755128104
238277553 757094425 93560941698276386
3673677 995842745 2832248179752706
983174453 18664746 12281265224520742
875920031 121284631 20492684248539981
692301489 309785987 1834202901798003
89009497 912350406 2772683786019463
674489395 326102189 216161770483154936
679789628 321127327 115578653542152410
139120845 862269972 75511413209348769
658991001 338529131 195680505736414648
657286005 341276515 50137259042064848
805817704 193575475 19525936590542383
308573828 683561251 15525782330185360
272010778 720635938 158148390324689480
773093351 227424121 135439829684114592
494445497 508498385 98822543243064124
274289057 719057714 56760613980431836
595972209 404316249 214463031746964232
767030957 232797685 41968082721078426
330565262 663862773 151261715062650588
630949697 369259483 24085868188971592
115865571 882684991 33828258486260680
959854941 44442436 18645622507187302
766972859 232918317 17153674231716984
235731489 760899509 161344347718400550
812112744 187680891 122123882844473848
740748611 263979039 140961687269276903
189205583 805791093 77813306492002960
631978393 368043137 152836642728731476
924270983 77734339 46658894037721080
33271265 969751339 26370356765344250
81147446 921079491 36629205958604310
411227061 583362889 198895264315081393
984122874 17325845 6143063423104207
808494241 191831289 148565409913642628
349657457 642031509 80275585022820320
432082757 562730426 148485776769415376
308098523 683941711 120558871416609652
891854007 107778385 70503463732225924
944861300 59235141 18483324316956175
289236540 704830567 166903230986753413
606496895 393081731 30666020697040800
218246497 780633520 8231657113410345
124419547 875742184 50283089778747483
650977615 349162850 90441435619268556
804451851 195117348 58964495593314649
813097820 185953730 92787427423251096
659565033 337613013 215962280200664892
248993702 744626243 19881595360962232
759981441 239978553 103591662941893429
6391511 993597224 4760241936675665
965412289 37381917 1673058237539108
943942127 60045499 25774469710582230
38577573 964574549 26086444187526618
80106417 921670354 40111881279423238
856334415 140010763 54241546026317130
651472689 348194158 193883908701055907
259350209 734840785 97350780108513902
837910833 160722399 120451442102927815
238113601 757314671 33370500850925760
935293441 68209070 31347233167828673
358708905 632723969 205895143376538630
946004955 57046989 26862902628481714
551360913 446239505 187384882286208720
973662073 28819625 4253184520056268
907874432 93652743 4370761522498307
885711575 114129443 64458695657609430
394540970 601280513 75629056826381684
624568385 376539133 63934061380342414
492254118 512830021 182198062359078999
851506867 144688574 118368783882140482
48018065 955189473 1907470756203711
47189473 955626635 12594564629092732
699808019 304535857 44878489642471331
444358585 554267974 100614174702718161
876637996 120964169 17711330811235583
256635778 737387985 115444723927755826
231409697 766252113 56449161453482300
878978554 118745220 97548555486759628
937543818 66326596 30184912329326144
719141589 286283750 74426360422727933
451878945 546947537 19102310446353034
640607773 357982943 36797138697270108
918488343 82955465 44787161766969952
212223557 786621313 48438596448425182
873059963 123439111 59897575177144788
206074547 791519137 19635152209649001
44055713 958131876 12575981362833365
834148498 164753697 47140149878384717
879644475 118114785 19257682696390060
349876394 641793628 143277560469908784
74227621 926376307 774448828371570
173248408 824248603 62840556045421967
629735834 370244097 49684308885438715
595024415 405067995 27293731435501463
910455550 91286439 70723844446819991
755153547 244714038 76019107905388499
188209603 806805921 13657713179650869
995667170 4477153 1142418245750154
97996703 901969409 21102944018255256
301767222 691480947 122490904743329172
371648620 621090033 9136251730777722
112843321 885128303 7104546382012480
763438294 236435433 89299073273533516
100801401 899083661 26929752079199290
88805643 912581145 55574360025561045
29349393 973097495 19070982547024008
825265081 172782965 18671957291356480
671681137 328717115 1271611838620044
16610301 983255701 5521249323343666
632222953 368016807 100042378837222704
4180577 995648129 1520062893143826
509574777 490938916 106592256351556829
314199763 677588111 100555360554342637
606264064 393815585 114483926588093652
656014683 343208902 10889495982632984
922679692 79444480 38463131540635573
418180097 577117171 234565552826230460
362543726 628616316 56330149002023462
900404053 99517509 83735958136294882
570999327 427665153 169595871805999653
342410913 652183986 19345928547744343
255231745 738089940 182808575420210544
435577799 560892273 4613647410844555
154957377 845437131 80939244473549194
592776326 406852356 7503490016343400
316114945 674775035 148459165321284329
390407433 606087433 78584994126241140
928194889 75838805 57761204866352675
736251033 268671772 134062546114140328
141873441 858495342 98389416088259489
617147153 383413003 71316517566411868
168072706 830506940 60589405774619239
954126589 48865404 28431053535902444
714470843 289920207 131365274429003955
616856997 383533424 233535380769049741
85259065 915034809 43018812562755065
313464203 678289577 13680647654131946
641589120 356868330 10144445439359576
164032763 835271217 51469813855733236
807478697 192219481 68374589442294384
541430815 458846101 142761395890530416
912381318 89767211 51178493684036791
550088971 448332578 45795959504387305
457349694 542087041 190019662699750287
707417877 296410015 193480401475095348
418701185 576726157 205158326990100789
132062055 870279523 96917527629141726
395885881 600215165 2114610683428872
60842696 939803333 47322273674655109
68176190 933956869 26956732307578715
672309459 328006961 15671585737929417
280724897 713428441 167087199509156366
462075668 538328015 46422638850260357
448426734 550599950 3239804264345517
990377493 9767054 9493310415496785
687071689 315258605 211387152678978490
216361229 782479869 12424803406266560
701283164 302560867 135820721213757166
609908367 389826501 37158317998576502
789353782 209926141 70813859971491268
361926779 629052613 120866720557649240
843495684 154308937 129710403907336852
563304821 433845930 141072679349962680
311539831 679630193 207503852589331134
584984825 413533643 220659156184541504
23250291 978154585 782398179322296
262600137 730456361 126837542149224331
929287734 74644673 57446870076388379
910756453 91185124 25539014611519347
616528102 383646685 183111202733374480
764860941 235567013 56971684044359446
492315361 512632951 233874647456428865
853024513 143146455 57316120714896816
930179400 73195547 46620621542910461
58839215 942474389 49143651171077630
894641787 105032409 29239474966500335
728465849 276263844 200845839034296249
310182060 680697545 39773637157629873
263490989 729514117 91542839192467858
232266102 764294137 3654393116875361
711846361 292456893 180358448657263852
656129183 342743801 82689996232013124
466544865 533287271 30249472369703136
104293610 896657077 74551013938562404
571700985 426964445 29868777972624772
979346549 21256508 4730635681910969
615963239 384619113 25349461251521442
832929065 166138721 49916592439863254
403600472 590133370 104449153986426963
124020390 875862853 28943909947846245
352918006 639629745 199355068932873015
11234078 988428753 6127285221591933
435042639 561002561 237631303704763515
97390927 903717949 62651556553302512
460632153 539293185 153607042087271844
560186679 437041772 80603177759998593
988285868 12936683 7130038098935430
289473777 704390913 73067829259754018
151939872 849251285 123877709814892401
586944513 411744680 32470332944722588
184817781 810163513 97565662186172039
586075503 412835658 201552132664755046
168258873 830012221 111284306006282084
918814661 82608902 32918421015891816
113326417 884518609 19647120593953508
178454109 819809366 95966635851129863
439523909 557472297 119058274919951972
165661977 832970295 52457819174090086
864942697 131731969 20591227186656986
954837585 48242937 36027739841493328
136510116 865342356 85406519024408374
612940425 386978541 152325221024078644
925082036 77438609 21178468105839211
237230341 758949170 23214164478304409
933519689 70088749 30529231029319463
761535043 238561698 32779574449496115
20621237 980520023 13427057878704283
756555 998892406 470004586365670
728407489 276527769 169319610705828905
778865857 220715600 23580687356717455
40208505 961814334 22949496054937529
77212564 923693419 45934463915964015
65056573 937066408 37585431295065389
769761582 230971492 116599858323926823
453554447 545066467 98967741983426998
416048938 578337391 24843689229773600
51017361 952372923 4486703902620668
20175505 980941219 8014223604353818
750172579 252826397 93426171871791047
603734361 396732046 137142279245383485
52992169 950117770 22726340353680042
129774473 872090689 77468126817930827
811548004 189553088 1678876871525634
167985373 830546861 98461184160129122
163413331 835951497 129365691220597362
371341521 621433489 18553114760419933
865176637 131482491 76947134347364743
98115335 901231321 70522976239652733
717251477 287296043 44515742344754673
349630073 642103642 110853337064767722
299725455 694621767 140948100946050886
628374115 371796481 124721131664948917
52106571 951405601 34233238391500320
489832629 514846935 122942110845627864
760496547 239595373 164803665631961436
661454153 336028481 179525271161958782
344363541 650622449 182648311572295214
615626215 384857521 236446131670127484
804822534 195014551 66803996719551290
433894370 561345041 2562588491435604
746125125 256937175 8198743201511872
931257862 72879865 55281482885645257
993204532 7624142 4693468879234832
919786749 81628760 70044192614833382
632575543 367509716 84786453296904628
312698716 678955673 128311310513298029
232644945 764023997 17798385545749080
126166747 874781993 37190658000124680
494634833 507807387 66407970404171700
124282667 875782969 105941545969287714
132468873 869824563 23179244300969310
298698917 695613029 105119040062865015
542032198 457784523 156330751188768270
390773096 605672352 42547980347178130
452774173 545532523 206095367955836956
992189773 8876025 7227821678854940
13501627 986115613 583958749110292
230803797 767310908 163514847344514496
648201229 351557248 213367501665311996
908596733 93500889 30562702665846906
263641473 729189583 106721553326295892
790086443 209078361 144515400947026397
10306864 989138701 6102114242951447
24734477 977128049 13134005729636421
743367854 261020523 94358918759296141
782348279 217448433 114879228563534510
300378833 693442729 104924925993848364
245994457 748972147 112088227120896049
127990952 873760719 83162527182035929
101637733 898828215 18572805783526946
819970297 177332343 111414297470053902
949549929 52271469 10308944709441792
466347968 533403784 90286161768300159
795280069 203443327 146399255034563690
171499673 826425345 67279752885624050
221919137 776503202 139533310326037068
132909305 869221323 14868663016406478
294789934 699052175 2321631210305456
206865993 790232048 25120994537067368
99501385 899535481 34126142841673812
181935425 814566790 114044849905168056
511582505 487814239 61312100947967952
550155618 448199450 81576384122664599
792357521 206009769 81325676908159096
871046538 126799333 47646316931778692
462693889 537748219 201980946456285150
505522409 496004604 134838237666459239
273455897 719678609 36166837660752785
117767401 881014346 67765416882465946
810692033 190066379 29247265091372896
808148485 191890723 87398718449780464
231982433 765703725 171980069456856704
912219393 89823601 40604121009979065
44225217 957899741 19792733992037687
993456958 7364873 7286571803904301
528427712 471776151 82242146663659035
692385737 309150439 189855466291284424
399431932 595205461 136160074810773864
370508435 622529097 210957251768489586
299840869 693808821 151606869804692457
219568229 779480897 18957198895180120
414449147 579632262 59644924537563362
755407055 243929180 144199124325372674
131806641 870627425 30657080059575212
687652129 314902177 182657933951523410
258895297 735138109 80871396232561484
30206693 972393462 16106840218572446
232014925 765205791 36630743302271117
167937589 830814683 237551039594573
535166769 465130227 65958773441533644
889585036 109805703 93905442447845218
971334297 31547251 21762014244950556
885797064 113481171 39981977404610425
787120989 211537449 110349562173520934
916489433 85433999 47692619714101638
484610529 518316297 32466531686172762
445014507 553914292 85109550418815516
675164284 325970063 118631624544054418
248730093 744823056 115841037196114602
854231913 141863133 68181876189011760
857073743 139202393 114100753846401584
342713094 651683207 58777915190625758
9099894 990701137 7103267488625645
766596169 234473701 162517060980672980
696801589 306061545 13144229300785427
451662478 547208327 246499820777455829
984967225 16086053 14567930938252164
108811823 889645137 65513022760146670
552750667 445526698 120377118644515542
415786217 578541089 143397941772516312
678148737 322907928 99703394514537301
115181926 883109281 69886233508469081
412964017 581675157 133552594286529082
469538672 530758889 137977157306991945
729262528 274568443 63202065892087894
200518911 795946865 38114425671087949
889923329 109240235 10499574807561163
208708011 789022141 163284435360410915
435641945 560807529 73034832675579259
867633121 130209997 109875839023898486
102881632 897941611 43918628073290702
279141353 715057949 172448159120899287
613168617 386774033 61983495437265840
679294685 321441737 186372647034995122
953306056 49942079 18388760823688804
219881484 778686169 195386359575611
917586242 83756389 2211901700263877
254203757 738410275 36049821617297824
394165101 601708317 43393348322385986
487264319 516557487 83075940360241447
906791447 94606813 16882235957062577
659659860 337084583 82112580836718837
840277209 158292463 96384262314270168
194044033 802034223 70958503778161331
243767905 750779199 44489610275101300
256809025 737031805 181276215711398582
210258679 787897013 62664905398834696
742118057 261802667 91706569797424370
798873392 200247353 107593361025079261
869680111 128159716 20578202435602633
368836913 623254321 9131630711885832
567979053 430230938 95394718455671154
598092032 402642437 4346004764563098
840595699 157424361 26970498560621096
990676621 9391201 6944951034292438
806426335 193068374 136998052724909004
256537517 737407576 139891968011573531
834547231 164492521 96081272394840388
909441417 92738680 80130455444360289
779333089 219990561 72827914819727164
760720486 239359861 70442846558980033
144292843 856515747 85136564868399346
699480680 304575313 144504377437644063
363588225 627088959 7491685630438034
122166835 878050529 31737363757240373
901316879 98965637 13518232090892108
336516611 657463149 90923229177364529
941116819 63281225 56209495220632566
580647545 417125999 237342073807633390
314303097 677388841 145192668477741222
633281045 366338524 150944998937402043
338239919 655249475 219686193791828088
413593125 581168763 138799092555534192
178545042 819457990 43263906621066151
576022792 423864303 106122172945563348
600132477 400388614 26084597602857586
346485442 647992127 43295810265703338
316027863 675284484 61327325271947825
12838201 987252985 2776050050082182
616430061 383959129 213009328673029636
336128789 657757761 25345917673679905
903857375 97921455 35455443074862887
631818083 368217551 28362147229594756
955740177 47248571 43130342279611193
225949241 772027451 48875371115287595
252098857 740340577 94569159498146856
248465733 745441225 148702343733260049
516287926 484242338 231776971971047143
620473903 378428597 225722151115385266
81333833 920779177 56714555339750551
886712292 112814059 67604070103745714
202787525 794206777 133875608745061210
186624296 809089025 73042107083084565
9118341 990673924 5848912531119085
313375945 678317649 185600686996458979
479056137 524304149 46830912280811906
18492857 982206992 16062907865406416
473664845 528738505 36471429090077242
683853263 317572909 162593024460885868
125958323 875007918 29418528137690945
484276984 518619617 156197507655477119
530772157 468952505 166157447617175133
249955359 743630281 124823949326133340
558834051 438389865 15575167969119851
86782773 913742175 8829469815601100
377885641 617776641 173238756176328911
109884665 887779657 4375654774690316
95360902 906217276 16117146121198641
494964189 507637641 199277621603947116
923299311 78895459 56269217802561653
539785628 462087061 142622104216728052
803501521 195673753 105776603328342518
488195265 515713161 124924356407550904
374878389 619402917 55138946393010096
179587488 817882959 54101905428796775
783539740 214620839 114677714262951098
316404025 674373357 208439355795501884
199233239 797555323 144282839047958032
113821071 884250930 34200685129476941
301235249 691817839 66102973787836246
115082139 883136318 232136233517231
955892722 46562378 18441155701396326
250658057 743227427 155497527375000710
217468 999601809 60970892367073
744441783 258828365 24605092094393684
164883409 833534673 1640771472251392
724726953 280666521 158016382073465413
995943843 4320606 2448160764756270
528549651 471615183 185231618817462354
336890209 656815672 208048137952121502
764842753 235572194 118319917573541707
489123615 515317599 178074659207790554
747065252 255535905 99212746205458286
806024583 193267887 48578848847750328
964366392 38923525 30170622479054164
371052289 621918959 179094379462543710
665389633 333165437 23171383745744668
790042228 209170359 52612697926183775
726403713 279238269 10932993251760166
353153865 639182985 17389826058427726
83706391 917182765 20404054815525889
822469247 175819458 48310246006751671
877405080 120131561 76100198348369923
201103361 795846916 147570889656022915
547481873 451264428 205207377118842873
665555661 333127149 173475879980572966
851259273 144727035 20318997185649724
958434693 44718332 18308283465186449
854604037 141754249 49813045531709240
194844685 801025882 100270154927047036
408916191 585463601 147910215625435919
908668939 93348391 33644925261848308
683591231 317672727 124816721186943204
1680609 997547969 557481760053812
807033577 192758928 41995266312707194
137447789 863803608 36881206563796062
981858633 19489390 3307649775373943
783054795 215507209 109092830627545822
242078146 752101544 108790187735250031
984817932 16379511 9288698436641431
308837017 683201801 137925473286675518
995486101 4689863 4300036656441011
483763905 519776712 64067928634040128
386931753 608252780 216052059040833092
303000931 690128745 137580233904009526
545049951 454953409 81534507937464056
129535839 873070572 75476077230361227
448264598 550606135 193928749017698271
329430713 665207605 149498059194643298
473144674 528973481 38663864258429290
909583555 92666233 56959122932778693
134565031 867017603 86331130219452328
386315097 609433434 215787196369929118
394333602 601550350 209198089745621601
651283549 348594316 177715892415460174
174941913 822950833 53166044536363256
570714769 428182599 145156875505288928
994438350 6093951 678909440394730
656048420 343205905 159280354612981036
680536199 320796807 12815869826402024
558550295 439533737 219857419412219357
502521213 499572299 147535649738240682
490008897 514736582 148130278646540559
956663436 45615945 15121914786734220
615452061 385316085 189287046322436349
469092929 531530187 213206378296254572
2035233 997491807 1954095387716375
447998516 551327620 81198717124930016
521964673 477859947 50657899528407216
556403533 441685207 155895133656941951
824079875 174184475 20748228618803754
486151773 516913451 84143208880030091
914331302 87903777 6921784470476244
729497669 274332937 153852895694991186
651713397 347471681 19051841236502756
425849801 569029433 23354294159090462
120419021 880127749 87512902196918797
141385590 859168538 102487045728047215
322404957 670779493 89472922422474040
92202682 907992397 11277139715983615
877277955 120309963 94031576089917985
734167321 270142993 21161510112254912
587049607 411472145 9594460694315558
99957729 899443841 75052098769896046
618632145 380956253 119055959369023657
720707561 284914794 20746533981131290
712528694 292085363 28326905171314189
242712817 751835220 30262246593892316
280191595 713856257 162798232513237879
253962993 738625125 153918484184142165
950142241 51916907 29926535006844750
625000201 376438985 172181014410229582
76046021 924542577 47189498427815660
419473895 576411825 87512304413299856
327674545 667283759 138540358054069128
273282431 719690201 143216499829328418
625645119 375723917 161376131938364696
413779837 580973561 235157970323314530
179719476 817515266 105585869456540870
741857633 262303850 46579957424427517
265814137 728261857 185115433779213535
2453940 997297737 2080786692990708
330136392 664416231 99251876305899776
700141315 304446835 157430861297080051
707439401 296157179 77583706327645987
186984225 808174750 29943084851768373
397260835 598677953 58296750047024450
766661633 233380417 2297869365258370
723304273 283201087 99836616211458840
532327145 467293510 247172563482349820
354497469 636843243 82136674898948840
479116817 524057089 9904179605732120
498400529 503400666 188996728349327502
850440751 146028641 35886651485219599
9032897 990704355 7189710106580334
435966100 560611461 39374074480929651
153149144 847851212 48541567199479559
207128453 789553325 135456512783637398
33884586 969284656 21347309317945461
281856245 712148313 51661371160957912
986360997 14362009 9146095283091186
928579438 75728069 52623981839077400
122311207 877855633 51888636778218192
364290053 626420613 41280592366250336
371099030 621644728 12206354416745520
403276855 590396641 199634416166472306
11131173 988687122 7316725126674257
515402422 484984161 135713781321786221
364237549 626461389 93616719819010990
907385729 93731505 66330311764661607
557285543 440631579 97135996560743970
952041153 50949124 36622824539692075
397307803 598622535 132425364961951194
229548392 769411753 168929848584019797
753321467 248231396 179050338245164661
877497985 120083173 46974065288577610
256823873 736710565 84725699696930452
792472785 205768406 74477840345750043
417928963 577362274 238312173251858525
905247151 96078969 26393650550745216
457699905 541854639 17695311354883734
792209059 206417813 101700573029416576
151517541 849533373 81533774293099382
50220481 953537537 30308796644189978
423169706 571794037 213329618384756021
689496497 312326977 132057288913009108
211846106 787107229 35822965887741515
728109285 276817913 52517016817333188
481824514 521203719 198814757129558642
50484766 953210997 20508103074031026
235436215 761519739 162948464932838342
620816501 378115353 99511644008831118
870501215 127647089 69091446546981726
247689785 746452361 132388350010865820
805915806 193359131 112498144336459390
8286121 991225561 8200847603267464
154500034 846650256 7271011640635008
72113841 929876441 27084331961774882
737761572 266064396 51742057101914403
949064077 52855023 33999091839321944
908285373 93588307 63651450409543862
474456225 527441817 164396319985926679
922108461 80171707 13705013411045460
81570851 920600157 31274996864058472
610260055 388673217 174561798374724990
37791364 965324477 35298075656837260
605420605 395304697 196673077382686298
614729053 385595229 157274301607022752
197231675 798958047 87192815970334064
58740647 942510433 53750864992907560
754445265 245800876 18279904186344106
73400697 927287524 46642085965356941
592562689 407022282 202614876145520469
639250333 360956846 73392009340111629
219322939 780085145 168748234378622847
259372685 734766186 140642962962180634
993370316 7469569 4483751099909745
849636081 146698950 86828366549928496
702543839 301902006 155548866096234708
448741525 550203029 66184958658653526
926622959 77013891 56380636429184966
365707625 625064809 149296804541216771
307073066 686175665 53078789009071822
866257791 130929121 21387454635855102
778286673 221347810 68260674588365006
771121185 229204025 85070044832294910
161072983 837862261 14817852899181516
883162391 115891491 80495698393562244
726653569 279214879 69049683089683822
959655213 44528753 491045586912247
201590630 795431583 116959676154113911
136972301 864370917 41671548058792695
410866271 583706517 225640758162929498
586347207 412368667 18457258746677850
121003364 879792949 34317900789744246
536220785 464635481 16144564054487770
475227167 527129495 50753809946364678
81127312 921082725 32708238415696788
596630019 403739950 94882206744925413
384915735 611561481 199091580844803244
399754657 595203282 7148912376478644
251253329 741433983 165870654592350502
950093657 51950913 12934483863998430
880085918 117990065 90462127882528251
165862496 832822049 124616577524345840
102973134 897853058 78195828666738038
987801870 13477381 4979645854613777
996671272 3367012 2363165029116466
743799629 260058033 108330563799404196
846325312 150664769 23039886361702025
388120396 607440217 86075968050961730
802309089 196793197 43594078318028892
230053861 768343608 30164994935976317
863861582 132823449 18359686109107048
731706252 272550169 24397789522599875
82161302 919825233 36896305268747158
908254150 93619991 53156421022415406
347764670 645851453 81374464527197246
419883369 575546252 15266885699171929
651142269 348981353 23609206211068008
295734815 698310961 171958611181804151
630044757 370128815 193913141533877540
42941353 959322161 13731276641675919
911991345 90305843 26493132815773356
265667305 728450989 24154332405764790
910872489 91065606 21048043589557485
968191785 34988481 20632949946082890
256809965 736910513 143733934548689658
58725499 942591255 53931458020664903
990537699 9597215 1367715276892176
405032000 589254685 101998562594802849
814326146 184205113 40626576099229925
964890189 38211308 28238849641705801
874603076 122677475 14166899517202115
87511772 913449671 64053373403446618
952897449 49986985 674490695645445
262461173 730909933 67361377855041610
97484753 903285692 38147852726605309
212266282 786565273 123770340939449236
69613897 932949578 61616018364807977
792226185 206289068 67100274754551950
708217521 295059449 34215468346800229
459697404 540181800 134014573773543765
406337169 588696881 90253687303685480
836856025 161706691 45694250269857948
28067069 974580692 12255844213332994
886553010 113230474 61210522324092395
831778267 167082957 107647923391207386
327271132 667448617 41204451566979294
56886015 945360333 2025211743201707
606068765 394260606 228187660719689789
642779472 355783766 218877974025035748
256477248 737687661 59014334862516290
643697203 355133671 176672816498458115
990619573 9592301 7186897452109300
481007408 522447129 197943313797559660
82761157 917832597 69663144335472232
352678421 639756716 162718498370031285
378429037 617609839 127148695382918
941597329 62807781 48070572678251624
595588333 404565017 155081418949870780
553685623 443933041 46404533717080496
246221005 748748135 99386315107897474
820726170 177076805 38166997516964809
543357837 456924465 194443362321799420
159884753 839027043 13898904612995605
988091052 13396225 2805317642187733
539960350 461856568 172139544842974397
791592049 207452737 108360010012070043
402380581 592230977 98504239913530628
796290753 202612581 94483746736275976
731392972 272986803 167653107958634511
757210969 241988329 167954878259742242
680028615 320832655 119312578782905296
514777153 485431427 142526028839685976
564383814 432512841 52105901708978639
340564097 652714600 166727119284202083
696169313 306884993 60614730791177299
533966257 466447745 97179114135646594
565961944 431169617 156656686953891840
156775601 842941266 74622558166583229
347998337 645264045 115665118656679828
279572972 714467653 103778999186422830
801574532 197511847 92532645624983174
858340369 138594310 22113888814511438
131920670 870320508 55071825532999163
551471175 446058893 110207426823161608
813004784 186287317 22005384116261528
432021442 562780568 44550552556182139
285971483 707835649 111743241573994150
307067471 686333036 183954272008857971
246828252 747666305 61938283822897283
912473209 89629806 54540714222695011
654532774 344885962 128765607756522864
541694269 458131269 174708676607933086
369576078 622970772 9487406074987773
462256037 538073841 167368676932855272
491427606 513638185 68689875078594732
406902765 588283201 28037043492194032
547296532 451675829 23103680196685702
425940897 568642982 193644238605514647
439614371 557463309 244982704545288508
859056235 137157421 38668401220249769
720891264 284830721 110278803275737520
726770127 278946833 42094077312105414
716665042 287408866 183262784398121147
497618329 505170159 3905541738781118
734420817 269870937 92377728876427566
885788705 113828052 85688114205467128
812680137 186562993 34576476466589694
22877697 978475334 19522049473710335
594111489 405572823 4342505899219641
98412786 900752833 53002803498962869
320862055 671659697 49470561144152016
629670983 370300197 198853790571564678
119541455 880318586 14884818160745006
125162283 875537727 88679983902873068
509008905 492200909 9917319768412114
549897881 448884329 115929636873354229
833545858 165718009 35640245619021556
797613144 201556305 72213259435526338
334562978 659656054 95658275666625130
1604526 997566296 74357313664818
690364797 311045897 59130650814786822
843117531 154829389 76716558434653684
627566699 372329890 80486658280293628
541543427 458522713 34871386248007413
218893511 780306233 101710170490014432
182531785 812986418 18331522326099217
136082468 865784813 87834767179390996
647809305 351793881 96900853725811238
976240997 26224641 221117056864961
502062685 499980754 153707718160202489
208407780 789082481 127532932339777859
571741141 426907205 193276848303703414
397027650 599402655 120521641143825034
755608265 243750593 71482574550949280
22350295 979039805 16621524638699787
263989666 729063137 79568088332401127
904178377 97590415 56820602884669224
815894475 183449171 108161506712058677
30748161 971956511 15157877765864476
823909609 174556159 20856968432193675
96380184 905035239 10080656300570047
29992069 972456473 13668337693593585
63389771 938041473 47008048074849988
891694785 108020104 56644029893952258
397175487 599180989 16443818874660492
5421326 994242564 3655687298508561
798294459 200698101 118136184955431273
698026388 305243969 91493505963449259
205312317 792304244 160393657360149643
360780597 630382329 16809544763777866
490384777 514447454 217756429539164518
571940510 426743113 20899017787803439
458937827 541351212 83530007477865292
183212791 812372238 134144499304051856
137673824 863782758 5254079411746136
955643804 47277249 38039805949123597
198208775 798157823 869446873674076
435001626 561042849 225849644696819498
903757143 98030009 42638773441339552
604214614 395778049 86108288397396324
546386749 453036979 220395941489241386
812067639 187995357 3743812796147562
997136054 2509115 1147621151499061
215317246 783227873 129532819267216668
265924876 727888564 68732573022607752
467526999 532607617 29034802475238640
873568777 123373395 48571574362628436
797742811 201346300 123055103992306581
270831877 722515363 111766665681169522
639686817 359817801 111995680567420276
560943529 435416837 196040114895081440
669935669 330578183 172018746707486155
714652971 289471773 26560031891192256
634930389 365184173 13326563817799328
49159713 954349888 20721175809436940
437924257 559120217 218557780862920028
145755021 853776653 14098068116338630
642998704 355632821 129264105863007339
779405387 219775869 67420113123715828
306175418 687037829 37623123283678045
881382713 117033029 87075195934659158
520560481 480146355 86233970696902528
698138645 305213272 123777397602884462
242537820 751852105 15527637446911804
767389387 232318726 128664502929832558
877483925 120106157 26778660836212415
408002467 586257057 161453736611276268
271224411 721574968 94295635711929492
668792449 330868451 133771547427714520
68992385 933205381 58567259473763449
598501707 402331475 46139004808951893
276346081 717246915 120092961942253232
824282449 174003497 79994894763012131
188817718 806354545 67194486210070599
103866555 897134622 86429762640089646
814234673 184256550 50197852323467650
406258694 588827790 145320511755765056
747987093 254866017 123996672167987682
205685065 792004209 91013575121175770
792533409 205668597 67458002809434934
604187213 395929363 229886541145041100
322051737 671091620 88576007018479266
273207413 719895417 35734165569815084
622650227 377318845 112717142042074418
470478472 530180324 77563928236969605
123270569 876873891 59332246150502141
40954393 961396951 35200587748120548
241968385 752231383 8939023081052476
640915420 357330503 188099237938298991
793135973 205285633 124846940900489368
874501950 122828677 59625848695218659
969220917 34116793 3455808626442024
796104082 203025930 66437269092383517
459152092 540669048 42646478165647013
407671937 586931363 204344668641563056
651313417 348367754 86075110355065816
984026233 17834043 10824515015520386
491087137 514018855 206415369528400918
132342271 869935311 12934249319136042
965783897 36961353 30543271539511851
241549361 753115195 135862827255603231
34976761 968237611 17118802630396352
895493590 103602582 59735018022756047
407561311 587138765 26356743827242706
496012358 506502491 53070583829281447
855218777 141194877 35370111927351577
715915300 287919584 85008409089034047
179758339 817274489 30205166193321520
72665914 928974331 20531078803026628
741962740 262192256 49650500758290003
410841417 583805060 170886786183057911
977129782 24781057 13429768939260028
228904977 769849969 129718268672934007
681448507 320347264 217080169936521485
774581076 225353415 54654168384142828
826744997 171177554 78086491755517245
798457677 200343231 93143019042260224
82285759 919194165 61890320609940667
400643182 594015613 51077584885085224
707452110 296073961 184998997784017698
954750617 48500034 20483180801176025
487266106 516522039 97342326510661731
574942720 424755298 170746576818889957
280638989 713510854 175738455843211322
636963502 363393009 218743790398007718
700542420 304290541 115835871782247104
521787229 478497517 85443958042453685
74682025 925977617 64197558285777398
279714177 714034535 186339554949377656
5167071 994290305 3870392917715286
725857969 279557134 136908731940283678
378122112 617670581 227372902746269847
71544306 930610081 43579671392803605
927139403 76419586 10542791519157960
515868478 484764769 175138284240437182
519101461 481554381 115031413754142286
445433269 553183355 104907822307640458
3270146 996545043 2552515219813277
775577682 224131839 129933704481213652
141742219 858593584 61369790480004439
750279075 252681241 22423302238064120
652045149 347123830 178679923526195765
194389781 801944393 83946042945630263
413282563 581359389 102024878174204328
736655327 267812290 82033116615437883
121988647 878588609 87667102310092070
34667697 968455829 28884840911996894
628147907 372058861 96057212014932784
84196926 916599501 69307710288721364
775328215 224504577 43016936285554003
169192309 828994577 94319802356915038
51872617 951509073 28917636934676028
281044893 713201169 79903209574760178
606925543 392880279 64532855662416050
855791035 140694692 67965522139313806
617792947 382966850 9886060521429648
505000845 497079657 218995655978261298
497909221 504270744 6169379498250233
890263873 108871505 23729465832114826
732993150 271230543 146364342612398955
343524353 651301987 34916111013727868
456626904 542531570 188715427122061922
227757359 770335189 142997784605828356
764777365 235756799 50501371673785724
301336725 691757541 131282495234209246
70272952 932196450 42677738027379389
970181917 33567481 18372095550184604
29389233 972992893 14066777525119091
836027081 162859650 25956909952532663
337070885 656545245 86956511210724768
202271944 794278166 80760379935899763
56215595 946325673 46063184860572294
483128539 520340601 131278773319241660
687315354 315176997 178804130035199973
70205285 932221414 33356430104337549
801355923 197543219 95360088107566010
120240637 880129793 21080453022894590
292990209 700574002 169967015340135258
249389074 744295617 159172559946863786
143967377 856807097 5902994374727741
893997997 105630541 58598575980400374
78368019 923153769 29075869015714812
17012578 982750907 12104984096494126
714182609 290010901 16750471646544226
187863275 807323574 102561069049904006
551511474 446041113 216497930246001949
115900893 882415160 101914872493546760
750213923 252817957 87120046427021998
184242910 810964207 84082854595608917
823004559 174975001 13439425547968305
544268645 455424764 43902016251566088
897164133 102628609 11589615944998808
556736346 441474203 36537510371760949
636421817 363898309 136233685037815472
671048278 328994155 125811714058566354
346999689 646763800 113100731261620307
706675941 297218931 174861379723024850
438718802 558368134 104825794560595357
942770629 60941650 22232089526639677
856705531 139886677 78035084695472666
688777881 313308868 39258560460640367
266334721 727237365 80404194856373028
246519008 748216575 82518184882296883
438717808 558444849 65458835003985118
319058221 672647880 157346032821544684
944720857 59242261 50987485309394106
225654178 773140571 89054641230730448
463946361 536930677 118555755537147522
337577737 655543137 198123448035070850
165528932 832980169 77735268474558670
383991965 612278870 193037253436687978
566538717 430765493 139323445796572820
289045421 705268101 62342127814593082
208272965 789126255 21156557805230857
560668007 435748318 141313163230253666
942815441 60748281 20184549011756821
5160104 994344066 2476579963922925
70307977 932158245 10739168962897135
461285892 538900721 170240667766553031
141103073 859628200 79690820061959454
75917554 924889713 19379355381815810
437870543 559184085 239665298842326522
96076000 905151919 6914833695626662
89790786 911684225 75829095867726392
206406343 791307612 26544502565100031
399173435 595936991 72672587796791157
825465165 172415066 15478829021942802
171296609 826855385 91961331525893959
333418843 661165257 92532456533550856
20248937 980694045 16505707022284384
739302065 265186911 43794757819172384
655448276 344085033 221201391702445064
129357249 873115860 108435661558358932
948120019 53512759 16279270318692794
497366179 505405687 216538698931343730
930944109 73024323 35096108063512580
375253997 619228835 154806540194186136
988149129 13392553 3333653316611924
251696067 740446297 110059719736448348
599422395 400999395 191709940208764466
631338141 368694888 158285310991488202
746202500 256384272 937130174886289
564673993 432165273 191031745423513992
237062589 759266817 8650635900506538
495358967 506660267 54412510383785565
172530489 824819517 83164474105886477
550642328 447125014 244671073539569583
201291504 795780053 6793724619122130
112728501 885360343 57859537344669164
719552492 285817284 35931665824345791
727253215 278773545 81395223865055278
755341405 244321695 77321845163017174
227528817 771629597 140646051837375976
538381139 463110785 12457772822807504
578756568 419859737 94252626849761441
349345865 642570084 97040880922446051
875368792 121710383 92138245722662329
595164673 404930117 116822906987400141
393392929 602999894 46996781029357678
720000421 285548804 68586245229593326
251381798 741071719 166539876179870820
128168253 873631066 25240217752093578
56965499 945331052 48108720545832047
527119262 472779496 130320702121253745
926935717 76429927 62533189374908040
980312806 20566891 16187758600502020
295714219 698335696 17595044414262926
483938081 519157793 93254052427270490
225933108 772367130 41180383034447183
612319781 387264406 91558001701085203
151904239 849259405 26360860637896102
819102783 178597341 67418449198292526
795480123 203353055 72654663729442802
511319120 488162965 207855410229677360
91317647 909608981 54881160986369568
977936425 22718793 12448034763364908
153107713 847942213 35803511350310808
739632857 264713144 104504970081560601
455320472 543128487 105522709462351742
720731165 284837001 187009659277972800
66598118 935805479 48393410847298176
210732688 787705087 58708483404265355
195724041 799614341 83689719957062896
456825025 542373091 34826051184366904
209114517 788790477 17763869744992855
820872717 176551289 105711324809139458
870535099 127475897 33304175615846564
359744402 630813477 182407649197362368
503599345 498859925 182493721436132611
335195762 658614161 202313454679990072
407453241 587188119 155624674196290209
293646007 699419385 59771698928769534
940408682 64412045 4921207552051735
935751173 67952280 49459880668476611
841247349 157020813 43063389388321109
125261905 875374769 8997353058467460
591218460 408011497 204167404132099931
296237906 698004296 40067975974396240
631565955 368496240 61830012818086112
334068187 660527303 100224745795530168
590684405 408310033 41752675963624068
560378481 436292234 166100175217643066
236229543 760324753 1428865223044902
169588614 828492843 30421843903074969
956093822 46526767 10411364534663936
694868392 307572635 161017909239769939
282660778 711198241 164428706342900761
239662377 754830073 169865199120108686
875759075 121347132 12103100782256805
16872465 983140397 10416220059409743
825466249 172078457 3760747343378072
104841949 895827836 18692611822897987
589712609 409654993 85322088113969448
244263977 750140944 154868055468471818
647609377 351891811 112033370473593336
805591453 194370258 76252004941979316
183514206 812192501 131470475471826081
553536885 444330047 228251290526845394
343266621 651509761 194138197620477990
347839061 645481387 64501551742237818
606895537 392943041 168065262626756276
483706631 519909065 182237148117249812
758797818 241340773 54723357908450077
823614849 174578811 115387350529753135
426136261 568163993 132663019418321205
444014713 554354785 198081524160954536
922122614 79766518 69238465491542492
877461697 120123815 63524465164964776
949084433 52787360 35649476861371180
37350549 966037037 23878846815522648
454444834 544053465 148005020045675705
716683352 287347733 160729935794726106
433411153 561486716 148799380280850573
961447447 42614193 39365425015835814
90411457 911329821 53115645299952674
248244906 746001439 136078825777135659
846609269 150396321 15489032958166064
385156951 611255465 38945277391427448
528962017 471429889 146401191288110358
359266205 631601069 34444241825896810
798044547 200828998 6747101520360330
398351745 597110587 237258913788371265
938328395 65712481 54711468376077032
298047793 696141373 37121246478679841
594938603 405091031 47976539993387151
281100069 712924317 165138800126922606
682312107 319362013 179321081251189120
195493109 799862775 132547180834449512
290398029 703019281 62667954462411175
44170616 958063943 5260696330543318
506938571 494964325 77897034070986053
304367913 689288609 136795935925353206
959736753 44450793 29269404873087995
774960481 224867872 101806534454208522
584599535 413968540 207669060199081883
339973139 653203143 89134505940388838
686775201 315454752 5056536459394454
969256560 34047887 20424463126713398
65520713 936587742 45332051965534162
879045971 118668361 21952569316181828
951972321 51036865 40043636486707228
307625229 685564449 202797502007894976
395383213 600751057 226093352145069041
184395785 810576682 4176918501838353
355223892 635170050 115864960384488787
858358049 138457961 15085338752747948
825935860 171990100 52142072949600171
432154067 562319112 15715300594249902
96652305 904897143 36652962887159200
112530299 885730493 50524002602490598
314127913 677613238 91414353910777799
172101753 825645157 95386703576459921
789443273 209914946 60473396314044030
98027060 901695561 60148027253415998
543966137 456176670 173529166399957885
37616901 965376341 33589769214763439
835831567 163057735 39733551712458106
743470683 260993517 50923495655033888
606695745 393074523 16413513614313523
906762545 94607729 25873628980913939
864550107 132121128 16920856802011159
578910006 419362403 43509278673956856
169942569 827851204 36915839438544352
817479555 181309131 92276865666281080
658416235 339609818 117381622607983474
927630369 76156707 11643538683410924
368579700 623743036 208244320606886637
308832114 683206527 84432653159838683
12546677 987359635 3995160963444949
487192433 516560505 35586766682714644
743566917 260981717 180771562339097660
910318015 91485923 23921746476630772
387599807 607824569 99385573154995124
909623717 92654921 23945775041536774
411609559 583349643 191064701883592220
559431725 437587481 119075386888116812
50251165 953478601 46196754785494012
837287163 160723473 31860645033393040
280910864 713363033 160525161195331673
815192567 183824105 80583836969001852
202966723 794162042 156797299429489074
516933739 483886851 32527495256133138
652313226 346987825 149238551555333656
617123657 383476485 231417186185997142
626986162 373653522 57282163267753846
786366717 212460829 82902152804040748
7766313 992259998 1991327438960292
516188019 484321013 33750159871455223
184263585 810877105 98206850883906924
884609221 114550057 47720662963095759
803124625 196504870 22707130565746245
954180746 48731823 4583796458758104
310948335 680141790 145942478917734999
408307498 586046537 129317428816571469
870560297 127254423 54371469254126807
132132839 869943549 112512469774050546
232611991 764203505 85188505929852538
90759899 911048571 15285834869444418
377088097 618991975 197417988155288044
662385209 335658797 140548573517337304
518726414 481774386 144664769386604357
81649509 920267585 21071497383684332
400057999 595095865 189047410841877288
421909081 573602636 90235615973785100
28824437 973755967 22185173918420652
847418157 148536005 15611025885669630
250324526 743413725 21628651070238892
403838465 589832613 118529034586596846
962585998 41026848 31985838325282520
460688845 539021265 65123170171308482
74582305 926002201 8042526393498272
3671753 995849633 1809603633213282
168152302 830277781 67746191800808637
581349521 415968852 1648225729074015
924184619 77824695 37827721498365913
214637681 783901680 127378040101703278
391151483 605311728 67970052691679323
759702209 240637701 155920915917742320
60229805 940916131 52693260750406960
346143238 648186174 23237683672668536
98125259 901198917 14331502634283506
555556593 442697399 155624453045342508
299530503 695073587 103961796680537914
425401809 569754718 214906935729738235
854084737 142163337 94545656495481808
275107562 718097377 2192963426259694
46930207 956218092 9364517264101540
346336602 647993261 1427257799130897
849708063 146533648 7375055641146533
748379965 254567821 163029283506739466
556983720 441248517 100435104469141173
916963441 84524841 51829085192165282
380387969 614783113 188901436861863547
332233553 661589203 172198753651971788
939215609 64936630 31647026209698205
938902156 65213831 33430329630407820
657944555 340120933 82683250831797690
996276808 3712399 196019801843120
681176027 320598977 79048318953646132
75894695 925138884 64272326168131028
385424302 610310558 35340634403516654
247437133 746529182 32070043671981507
547299223 451285757 99909197753688919
276169009 717431829 90986620374992672
291831464 701388835 65082113016188116
856961197 139235181 60775592045327962
805172737 194664205 43446686878734554
313859293 677954712 93893447602487412
824940008 173189160 7760344311267360
254631246 738229347 77611374944151985
895359697 104196481 83495045010417450
784357647 214258332 3583318433749373
819924927 177807849 11219745981884544
235940847 760892017 28283086200373826
825485727 172044842 109246775912528476
406504025 588695935 27620327822837934
238940745 756545937 71633806478349856
140840637 860290178 69324208076366995
371641399 621170019 34323219909901500
285444758 708690779 189747396069907286
960676437 44192325 33752443264416584
353184078 639110402 157563284276527462
481549920 521282053 32459370452346454
89050145 912162598 49048728474769922
766656305 233520321 19402383600899733
393520836 602521621 220094089229028142
916597869 85288133 15281998982260758
706343224 297642628 169547008210596815
126604851 874145313 27206234033393045
731099729 273137861 30177316665209352
895227470 104245812 55305237273193398
419588922 576364805 63274618151946717
189672968 805575868 25120535471369642
547103121 451705033 233358952032350970
696387223 306779169 51325418596910512
425691340 569526457 203043776832314024
217769974 781064727 28070577845744360
27974945 974822657 24483279878293296
491789633 513371585 6767118549357854
396327275 599801091 181331259406639774
923400577 78476777 48931391048878044
927252373 76335009 66494160527765784
518489304 482706257 244528352761809069
753258409 248372634 19189368601304052
541300149 459768466 119703701528260016
416064359 578232697 174752043368044164
657602855 340840821 41919391115390100
194420081 801886011 1488683289261244
105099189 895288265 20325753536583376
282631249 711216663 37467846058624692
996237350 4257241 340300407206846
46282843 956298273 42444209319291252
339860537 653378040 172747992175161593
592369924 407660833 2727172386851332
146974016 852693156 7613801673872727
98644279 900471346 10839538819795743
515276242 485168717 162078455207326680
803280331 195928612 86386305017071588
917588120 83677269 53738133349533343
802290345 196930393 113497280768692946
241544294 753158244 4851022080745873
525146189 475078453 78414913484304808
491691339 513502062 81166755336161521
907164341 94278463 79265710012934014
928426708 75747801 31384588177502632
283524029 710059887 121545191024147776
527362242 472627925 128495255293698450
950460296 51753359 20707188325759403
82208869 919481009 74632766787372336
659289745 338073069 161386024527977806
105700129 894509362 55456714704369991
754007960 246978469 60407620732710618
627115030 372556422 66007424611327012
499540639 502229035 179901449446893088
51737703 951713689 47763897903068658
718792086 286674241 158492301956045102
82707192 918257660 40423496708221794
540245323 461108547 215911851072209457
106866135 892689071 74536290000697234
710408316 293248761 163148375243336138
816311201 183069156 88778456338276487
347724253 645851901 102508238610310874
242351375 751934537 108488961715479402
46939128 955964351 25487817481231086
262519903 730526827 22691415060950456
888706337 111259805 69014768141625426
695351408 307267500 119164677380523775
986166843 14867039 5221918829227946
732916387 271477155 156177340808808368
325026845 669279310 156208001135691325
342638901 651762305 38641977599430784
271240405 721299083 140058997090126477
165067983 833521848 107732551487348293
60841821 939854065 29052263509967568
424061269 570711117 154995319358515160
587564319 411095521 188180293270218550
394650067 601133771 128101474816959451
987001826 13760031 8693481028611072
692443077 309006857 76406028831372824
34551553 968799901 6942294693605698
915819777 86384770 73126107502835496
152739086 848378165 42863106088082346
89001187 912568754 51132533314202776
652198025 347018851 107561546942533300
745190813 257216185 94211274948707518
423144521 571928007 149645996288792992
778874589 220428979 28170492507262584
707355601 296594176 120876685145798831
67035269 935017649 3361678101979324
893255746 105902044 77649225366698715
395357240 600786507 189716249803042020
37427781 965710352 8280546127123669
625649451 375693075 15936993330585192
446970162 552281177 130544941530448956
786730497 211808489 144507979188562218
318521014 673400635 148885181012778893
708005803 295178799 178767230102958014
408614609 585870627 204198799098819828
786241462 212775799 153539231776409450
685110585 317298901 147205296018191974
885545617 114272618 10353087647283031
369689915 622940057 186535377393179443
313327977 678449905 135757398441368752
590370156 408492383 125921955698401898
129117369 873206273 90234787120091621
737308161 266202636 18892754351443766
109556805 888401660 48372278639806396
257603073 736055481 134358227007285916
8473361 991165570 8363719623698670
196663217 799004643 21184967079577850
970505145 33332997 4233774147421736
174731749 823134519 31474727877036415
2111799 997423485 1319263259642878
222655044 775487853 106017695312436035
191506337 804210743 104809678582773032
618652227 380809233 92286786280055133
265350145 728499397 46059300454893753
565467170 431172785 139365054809714028
363193057 627312065 105823848716071748
287032675 706787197 120912624165713511
618713428 380792749 178310127817476419
346546983 647697254 139812545294826710
892368513 106966269 8013285995398976
913772745 88532497 31508705901617552
678732381 321804976 157253418734810556
723390505 282945507 24686893623388118
689327161 312411691 51108319589280356
347918817 645443707 187559064722148015
154242685 846829099 3717449250182224
701537101 302438215 117846340719047051
285540707 708529785 105036051720341423
181490693 815143681 107199486732963493
140441945 861234175 81697838095016386
367193572 624559921 188909461018706722
980251905 20769217 2828971660974036
10009064 989386512 7605753673838286
129598839 872852861 87122625200193048
315310271 676500017 119853127361176674
158718585 840920065 90096333305891456
994033926 6665252 1598763698468180
206597117 791005325 91546404244098088
419722561 575759791 123895574117413878
123282109 876355545 32501296622913448
156501753 843152321 87587117941000964
268745008 725051675 193028536015002583
952725721 50441095 15153247365825360
789694803 209741885 120310848936305394
803065523 196586472 124022210617472502
46367869 956244247 27077184211675588
513601458 486411613 77867344548858900
474219795 528423323 118856429507043332
953471587 49711697 29173308049210009
205096953 792993730 45901216583045888
216336201 782708737 133414214599963770
381335115 614392817 66320336096167395
791958097 206844602 20257399279860741
705671218 298607644 45865978265544184
687455521 315105981 196127749634662246
685164313 317162740 138110752550764057
916890925 84603669 52753489090206645
495001301 507515951 162453788096590398
14900262 984964929 9106027307422604
876406521 121000288 60559987018219617
454841559 543490284 239319342004019565
77278443 923686755 39160739255088485
596978908 403076439 91068522902678062
507681257 494188289 21384818662974212
441597779 556208895 131459069274226877
318855453 673007701 72846327694106374
777803968 222254623 133173349285175005
965626849 37002213 33005281710291832
843257881 154675988 90599945947494692
166607955 831353689 53844472918810796
87909643 912925707 65829602018107729
912707154 89049897 27039266914772914
395712297 600276139 213141382502665635
44664276 957547359 13839546583212712
475214215 527201891 175893003952888086
509615569 490617213 32421203421313084
845294480 151347672 62654256900073507
156261301 843478301 18603126666406244
964444273 38839397 11845267590395565
534893297 465710150 234856955460651475
284820357 709186543 41357590694394980
107822265 891092409 65477153178046597
16237653 983659432 13068669732921554
255574765 737901171 165297997550998448
27017092 975522774 21647553173514437
13095589 987002169 3627655733827772
292731781 700765483 198011679443194648
849780455 146525273 111910550790236034
450414477 548194966 127484164531307707
377370449 618284555 163320829513298856
381638682 613844525 34832037530741474
816041071 183411755 139591455646631847
177132266 820653179 111910428850260412
825073917 172915729 134661367903325192
851814463 144456707 52032178819634912
244021851 750553008 81402681800132767
169256045 828756367 6470539445792520
893470005 105825417 9437112986014148
479932993 523288313 131568953738562072
441311291 556867437 33178976040842798
51558352 952023359 42511868676031805
545092833 454832682 246526832994717298
181197721 815706818 29724675013059084
450165343 548377025 73636222045106568
870488688 127676152 40777084637448660
145021753 855107487 59372270467249454
870741353 126898619 63896200242658193
357555633 633241177 118401246999391204
820769377 176851393 108277167155502017
165455303 833075917 121389524515475952
584257284 414002103 121236106783382934
129003713 873289057 19463381770582864
639317049 360860545 33712871203631272
404538635 589442276 209490241940747914
861585954 133666721 31877910044927884
175082350 822945537 54527995449823198
403360517 590169039 84754254602888744
360760040 630429045 20577457675579731
667084453 332014901 175666808738497950
867151641 130648033 81511614464525225
673183197 327953485 38119402520939152
652552417 346849897 200242873755528516
717337318 287152449 195454773146841059
766619913 233741604 166991735733178413
156825376 842931858 5117048772210686
298693577 695650675 10497021967367166
15797098 984017150 13250900625424359
578112547 421235249 125837464011087990
111006609 887124337 34519942871375709
651269631 348641884 49457642942025443
87470825 913512501 73181071460969684
262247957 731268843 160124263578577720
762165627 238271049 168035943179812748
219580050 779315585 86323684656963428
774199707 226547633 86021575588593749
736766002 267460204 181481338067640396
303387747 689946379 196429887847381940
55015561 947584863 41978375875536577
373350137 620478971 85127505262683553
415721665 578542242 127346046509251126
637319058 363264390 67528620214882383
794909929 204138619 57166009234388982
468228847 532092669 5936892516577081
205824032 791614139 60111580380383337
582591487 415345612 117470062680836995
674500209 326094313 181926647215475265
885935746 113451343 83387777458936361
192857983 802710815 104741096547020253
219475185 779528055 79868230096661077
554340321 443301889 81896453101096730
771986063 227975943 142631381822388778
839720545 159195953 19760655284913252
231596155 766150986 51882849372974501
135226139 866796913 29603695524003840
956137135 46469964 37726258530292321
39450790 963563483 37007969013643574
259591601 734740267 139395922876885516
144404269 856164603 32299425328476606
672878717 327961496 44718539737315544
407229976 587968161 69982687821634087
362190577 628858737 17014989161103704
257270381 736369359 24569350813360511
524198450 475650477 108220504407757625
618939441 379977943 192273910252324966
200628567 795881467 104338730390600414
937527089 66395511 15244605372543369
511343397 487950659 56108755927061461
674376973 326172957 200559338736240180
395075461 600975063 208459013595182138
677832829 323166077 28677539437978674
417285974 578015245 142574653331066224
610707625 388209774 163847856966481384
198541217 798060545 80723914954633230
53904049 948762549 44974148112311592
678361601 322645811 192112450874517596
526728491 473626685 196292251165648034
139367477 861840567 54575839709249419
870607812 127240846 12372678598268530
24959268 976796529 19530580839225209
893521170 105810217 55008686939977707
842701682 155005335 123146668560748142
803196705 196019041 2916590597394904
383108557 612624089 227907201348826750
381311601 614403369 217639156383922227
331074154 663544957 83712552378813576
558827395 438621741 168463779094090528
861368652 133806217 106867427095033708
841184640 157145489 116052122739523863
166547064 831768573 83465248418297898
670819769 329396001 147718468513667678
610559471 388222383 108504932586526394
557265681 440769889 4427265861520326
465307071 534857973 118640494861192747
345687898 648335395 171037730914168498
527099661 473169496 3646550363917260
24850038 977112138 16084282208858778
497593303 505225540 77060831815900637
727397468 278413803 185947855567922668
627059025 373364033 14714778748220804
721547813 284191599 161411845538035596
448053253 551277876 146347015571980022
489123773 515273387 210939197115334324
691360495 310252255 146686028222173731
540563803 460789248 211608162332154755
373759797 620415208 118189981551910683
547576689 450998977 231096155121813016
927305235 76279871 69954229603585550
916191735 85704218 14930270283620045
506555349 495397305 203150432349193311
697237915 305645793 149059955776663038
560916641 435477293 205879998391170610
225969449 772010905 121435670032114268
74861142 925785681 22451372412292200
818819121 178964757 130817451439932559
246484724 748605451 159443009936628313
408810609 585575919 187622764733735392
239120477 756511751 129662861683608944
970153905 33756621 2483365935258450
738686532 265538975 37408529943157409
530829343 468857560 20765275468126580
846701497 149252977 7430004778742756
337228609 656041025 207290882194106914
161129345 837711553 111849009896939749
837988691 160696113 131448473406696356
318623870 673315931 143303648234054619
990010022 10887665 5873390310521577
568494839 430207095 133693980934518352
46968185 955764754 38826956098001284
107130591 892419841 10781915188084492
796925647 202331761 127057515189747624
354759205 636689396 185758969698600628
231082625 767132097 69740547751537154
907837175 93656018 64751674068822807
226139369 771997553 60440741518041769
707807247 295376985 135988284251618375
393994565 602232011 4574675841501408
633608985 365922662 66641355475853660
868028355 129385737 13613087501645488
282269147 711857186 103335057002444734
308022631 684364877 173818784281362646
202231493 794485357 71499133139341139
225658721 772992199 130922465664553080
155307493 844684434 33187121390105392
855018318 141464195 14495741522521651
868817047 129034761 103991554443811333
380932567 614590218 25967575912507027
859866095 136804270 6956670835716765
344888339 649858737 152556742297338310
85545191 914898577 21178243245527121
903704765 98096705 69138525155517482
265184907 728651896 143452105219562592
3134435 996697546 2386863620165446
906377897 95280197 85528863743678413
20360102 980546161 2892960581501808
712709559 291947891 70091662543273058
449277536 549871721 159698877533388542
137217675 863950450 79017418839994467
296364755 697520645 9597603765109029
488334650 515580480 195645848682001245
109602928 888275651 69466883873308005
260642163 733256108 23841314666220217
546420299 452656105 49850615929159130
916439936 85441758 55399061792439346
927190025 76355697 66389899443546492
338296281 655171739 164054712015071312
109656001 888205171 24616414223499986
707655209 295499065 114588174346877382
952119905 50922835 8652847834173096
933759385 69819106 31861402673102682
166007615 832528279 123629649119673928
307487657 685941201 162118314772403514
530050271 470176574 207951467394956583
23784241 977835009 21589891290274860
156420998 843464894 101094504132362118
852397461 143707567 53544230026157235
464313737 536596613 199548518053677026
505234390 496654525 70487776747114372
887181997 112415215 98133778431563248
815687385 183776337 30768442535884044
425831354 569065357 69254870271562377
374014115 620138828 33503116013323877
510319856 489269513 94308717566087825
335615028 658150829 33033276829874429
504495136 498384519 156280506501033617
741469079 263131592 63781075456174954
888460240 111581499 72001863413721904
83513926 917460805 60796428123213133
489094216 515395721 177713167613876570
195616741 799674881 115142771717222578
705785486 298348163 12356904551360921
409403783 584650657 21518428606492847
907399785 93731053 69979363864405931
125963825 874848166 80328077703499383
110338765 887556729 14874453344504396
352539361 639768163 119303287746791960
559701442 437479633 162115658882316823
710000945 293865909 118839518868263652
986451497 14077716 7325324714916341
377529581 617950861 34041860997244068
250850891 742454081 78499176369542702
901292967 98965773 21796621643157529
468805819 531681226 30956361368843308
659222126 338138545 142069400942960782
616011457 384153778 182295708585466103
763698753 236019981 160718367748086819
930333749 73191941 59409835375733174
136445392 865439727 2522686896756492
778285557 221508387 160752164858109324
84938296 915964732 612108088585736
709514773 294501897 135162006314576238
15777579 984262589 1076168274258106
784859449 214157218 41536762521235783
1143299 998269789 97840408032752
805056137 194727874 72480417442296576
280596595 713527685 119731187231160768
150905321 849995973 90187006986278814
507680886 494210532 186311991854927757
230658706 767468417 129640985608885524
73673679 926949819 3775160706848274
70571853 931659276 58763891967454506
826132153 171814127 5849283775855632
248524176 745222231 142369927919839541
340573900 652668780 52533048239769128
956196109 45994494 4964776492600829
977732136 22756129 19830199030342333
488994665 515415223 20527561847222254
737594466 266171156 50668205001761586
762216335 238169497 98408969138759329
522199661 477163925 158645516331029410
479308444 523774657 120025613176917755
348727148 643736401 37647822174894791
77871187 923365430 40320244423266935
152711387 848417554 119864017426666252
283644577 710053877 152373739409847460
353738654 637823433 91536350265223445
522789451 476888833 71060697359537295
58249361 943396059 41284872990896395
803607557 195657011 12620358571470078
565217163 431961612 60790866340428875
660173529 336962679 155343383207078331
500350582 501040479 230995539697964830
252946030 739615519 45129725379187516
29124071 973449681 16660978366548112
291466395 701690917 70941812071311398
971498659 31291077 3234936175227716
703522193 300723537 141867253555127154
845270195 151538291 13293850287861570
257206924 736466498 45064158711966867
374429893 619619003 91080012014135954
783500917 214949258 4866081062231837
864017069 132479387 12778692054036688
526921345 473510348 37024698021865986
222851428 774899337 75666819913988615
716331275 287561899 168648735935555490
277299969 716367823 14172653416789008
533372657 466779087 83182542492252392
953792739 49254943 3453280199372106
402418063 592122233 115582136316876768
974630227 28299577 11887283393040668
409192840 585167099 30452525957861877
179677213 817730990 69717446541032160
657770049 340365007 53085756023644710
89754139 911717760 13258371353637442
618392048 381631913 47446322380763047
305278843 687769801 20853880285959556
33829029 969479777 23099580365451204
211235725 787428681 41389072531421568
907342814 93986569 59388872253999279
278953944 715229271 93374467525784464
671714435 328366691 107020330591625695
505487585 496068617 189551417664780274
878058897 119269217 32275384636621428
240369123 754038249 64497797133513108
305719318 687164825 138204885278381911
848275591 148104133 59114106887871653
183085041 812492199 5597109143751896
7867601 992220073 2048258620795554
100858260 899008653 62016286748931944
113880083 884103489 18123341775813782
67986705 934366247 29540304517813411
519843110 481348084 222462336087778591
31801916 971022815 3502499152417877
97515397 903215421 60998612025564451
404595147 589339973 2428185477149592
443339911 555107841 36328018761740190
845177520 152104927 62809271863343266
302713803 690556937 65356049245871176
656097081 342880745 104268502915637482
148450897 852194659 80489241484292732
465030817 535115715 199394217039944450
586319897 412520857 56223853384936330
768430017 231538824 122540506376853912
199749750 796980669 139083732495453950
405419560 589183471 234649136258586992
765766149 235129113 105511876311747466
51005277 952457233 33557406877313697
843236510 154772314 74047018184226911
954955789 48166913 3686473458517773
353202372 638395993 81982244358390482
734097201 270342495 111301491884800639
658731017 338745968 72538700102614228
768900981 231175065 86737691752607650
139157047 862050777 91696445077906296
513545929 486507725 198212498824504142
399323973 595510395 208170811215228766
141551817 859120153 110183706549588859
720705867 284937975 55285398886390334
714255505 289922665 96405490256725578
596159520 404238176 152016451831837909
961388317 42910181 8714994885419564
746911380 255627569 13286316288238164
763170023 236498761 32938912676957810
577676894 421691885 206151785307348055
549141917 449631055 70816171943726054
315797888 676118772 121092364907188496
452437967 546718811 192094816248035042
553674816 444099407 134309892992975834
762844097 237225137 1295589842667436
562067140 434609473 209942228330645685
439208123 557627927 48580265347674349
816763139 181871609 131841335327096345
440262375 557292022 12830702013314021
172423397 824825151 65493557052077752
916768895 84988600 42760049958290088
793616725 204868473 115714702268922338
263109265 729938274 191211288625400284
481432910 521638647 97557759028142930
761982307 238494997 90538102812381695
832839181 166195633 21635668056944394
354008464 637708300 115306300748158095
236666273 759899777 86432866674860428
706325929 297739862 16280573779760888
627342345 372510006 167003721854101209
636125793 363960233 39512484999049184
971272229 31630168 6029950912948350
609368343 390563889 186351102350506336
325632865 668696080 76916550265784689
418400547 576769045 46460835806390784
641052961 357271585 24303536895033547
204928902 793038113 16789548526981493
861525487 133777157 77215316323438432
194772833 801319841 73808889569936046
133476033 868820875 114580564252129978
720181941 285292264 17930376489113381
985260561 15770013 1211750131592922
812625701 186653340 69235580323310871
374315773 620110545 14990562445783312
282815493 711139151 129736548353910500
460072435 540165125 22644885374716370
642256561 356597935 101032686539383032
479599233 523580562 192953839088765948
562906289 434184097 153107629309876515
825307399 172454441 5556105743476764
218293199 780557125 96404489755151174
697925893 305318883 193864188871546148
642403779 356381788 206448750345362754
986221143 14693915 559394225100837
48171945 954785009 5674111728303362
420360114 574492147 33774632242642524
726729655 278947257 92468572269061749
409986393 583900289 102767476484991250
611845721 387348299 204961855975146656
636800700 363524437 122822886842367699
67851010 934496409 16945026873487596
798649598 200260813 79066816033148978
277227032 716582177 183896028515179103
494334379 508731688 103021036242974123
497992026 504199385 84891175887197801
419680685 575913688 83199985751440800
298267852 695830527 138193005788869399
297868561 696173704 189636385176450087
703048447 301684277 91633766946810258
926773770 76743733 60524066975450913
687907117 314662927 109123198411683732
625876293 375313240 168885672852934896
860758175 134665033 31006624962562724
29709490 972915937 4706430342558105
516001457 484733954 131464599957738997
309843014 680800111 71165648513515211
860047229 136652538 85523656592823462
109832410 888008153 42262779356076798
45956085 956538988 27752251849742387
176888360 820867680 144509594187063157
955576186 47310521 12603568542137834
31321733 971588959 10835569156046795
168369522 829958654 121294459073357768
719092817 286507413 32290858167180188
174018244 823749225 14376089884461148
222037299 776301901 100116185142116694
300211825 693657973 191609987154131585
573020814 425799643 58524755512189871
130252394 871417553 96837574304840542
28629577 974143719 11327068848203477
663344709 335242209 165379169948652667
919082790 82059037 42139680093725653
319061852 672593601 162059036568692992
848659523 148065757 113019878379641856
753243581 248455559 3969625163455728
574970446 424587333 207682606960612648
197705778 798429257 35702208931208809
476350465 526114565 158945759070658266
231279793 766749021 93004082204081192
460214747 539823153 114588868883861480
846977035 148738008 10508458506349536
948019113 53721237 22152897967977142
109067264 889435713 65398611170155625
877919467 119552121 2459705999508261
219238871 780216423 111797105944444714
424761095 569910697 136787735480127274
986354251 14383017 12223396169975486
816989638 181350321 13666241910330249
496587557 505911499 251012727187508460
457449189 542043052 116707640666489025
148416757 852231642 58803338393394207
431928921 562882433 222126805878534862
172423081 824882075 88135578288308318
771202676 228817921 70351539616062072
908808639 93066219 58133879043902630
198229137 798153139 26766793763418068
57210747 944326461 21512948709046979
113437007 884368929 84366712548704413
997692189 2045897 1117332528432422
419419516 576434557 132547717712845895
735187337 269748791 121641986730449998
221500611 777186200 80539200821990411
615353403 385367557 43074880914509196
526460296 474325259 28060606366708368
460403913 539682927 82237960453323680
283022592 710787624 81726283495327921
668486405 331007801 198554218359168328
45914681 956863236 24204590617946139
13492627 986122257 2740553739465824
646377903 352261910 172521122107301006
456622854 542575419 57227597492528734
671088539 328870473 124236671963999037
506729701 495011047 230388471331060028
445335972 553554801 221839144033286011
792626505 205366292 51029416848402990
216999819 782287157 149150193495007176
902803171 98206033 15470908014914156
426387807 568108412 22466518542381760
263641713 729165739 137667983798742885
131916242 870367317 290786354974746
648752809 350465485 217814934965445920
505504915 496037081 167121264015621428
466743186 533170309 125811130272911334
389577414 606714633 150236629724759355
274909896 718123025 112098292775036675
358058948 632896972 221918752599823574
158193621 841421585 117092783857574902
283327877 710532201 199782868849841692
529068489 471351631 212436453348742712
850620564 145413597 39555999493005009
58314647 943096447 20063030686874980
112016943 886551471 65407723824123171
476262609 526307785 35106767679440062
229392865 769434381 11125297894288306
349607089 642260097 67016204093293736
734335761 270087534 181848115796111256
970920121 32310389 28451192705699177
285787156 707983855 145976952323508176
961223051 43118049 14801664530137404
298271948 695771282 51103821619032383
348502528 644366373 142842886974260717
157388220 842109425 107037618132210520
583773302 414742701 201174342907136881
374818593 619448937 230114410510536321
212566657 786359465 22709538365606463
345422948 648522131 67069481679523974
621510231 377898750 206539000312310966
842087508 156244394 77386271187855334
55156129 947566404 23964156337446144
603408713 396855651 219334229026903734
309657845 681650925 38269994792471954
197677909 798706725 3020417002553735
571225146 427543789 230037695803340425
323062777 670284963 48561453532746582
28287039 974311905 3731990775035355
816079587 183168732 17643270630838684
390727733 605976358 95415086209307125
664900000 333679711 86983466080954253
922658241 79626121 69818259029083425
338747393 654641441 140970691418208579
663594641 334503766 21730901777418407
991646743 9171283 324391029749440
527280674 472654841 211199640553385980
39773855 962682685 17392790685280132
878554249 119048562 89886270793839234
753716002 247382926 81875125923041735
276227853 717273335 188553053756101956
941834889 62351614 57354078488614819
600790657 399249294 218323851381655216
592613105 406857729 133496906696587288
835668321 163336836 136067735313902670
189080962 805980953 100983228255110979
708982657 294880639 87361378577269995
116711267 881738241 101604470296266988
607603889 392372764 69254860250675042
965010985 37968654 11201859674824603
876776783 120922745 2755274398858376
599353443 401131470 150847562214258887
258667344 735562687 141989475293936762
820391783 177118513 80754279445891081
472353773 529247197 72097016741549144
201751560 795005655 39457140637070708
644163549 354476969 158591826441915148
884226209 114837283 41070666185417304
566150289 430970272 212081679158936296
271249405 721287701 63786840743148302
997851932 2003697 919437388850734
631272169 368886124 60006071987997351
325650778 668320210 59447874226977488
103543119 897319301 27178510595158772
171708693 826132073 106749114254554514
550396595 447258497 103050534510035444
874257361 123145699 1476905758156689
247244318 747034089 17918163604075285
689875849 311267405 213284392870634843
180176137 817039422 142778650332063660
411959275 582883461 96481371815920031
364934074 625783759 16079107448522752
700088596 304456305 42633716829102498
449516001 549603144 161016781304858409
512310933 487173905 204946109088019021
465595039 534360669 211470737306526939
857665883 138818486 61516097101173222
939961577 64724138 60089234576233734
196562193 799039743 103593839132121768
626965135 373672917 20365270665178592
229596808 768605865 146551509559699095
38808095 964494921 23254462043464280
132580549 869725921 57885029659202064
965931737 36888758 2666746247517078
654098520 345150034 15325746040636413
34583059 968648646 33060091362678731
580452632 417348161 103896799982804509
413548151 581199646 32783454287167742
869039859 128883518 343310374941473
706506765 297394225 20214466577694030
269819591 723281349 39929409668342799
509950781 489741498 76191114622758563
854705109 141735380 79015681290146950
137020433 864169907 67473540952282576
283521831 710102246 9997756934433019
615066846 385501113 6234608781616829
397014783 599524641 218852848638283028
221333909 777531693 125233199888222265
559238337 437831337 169988449591434414
384642072 611629449 37904551499620963
514289908 485730133 212880199444486098
487293546 516487071 225119466895749435
757433793 241742621 134466899215876296
601218492 398408391 116918770336922263
558072742 440393564 79850057885555301
198503951 798149231 39443639501302796
640712926 357739301 65904456096748290
591133039 408133039 17913275769186069
780152755 218940168 130458015374703590
213545870 785314283 385328394269645
485332943 517550105 20247727637237506
437771838 559552347 163958669348635115
630603793 369429137 73040586806632478
530281583 469891389 11875971359706478
183538827 812032081 39083303046112448
460565657 539504659 156319276703737582
861350657 133862955 81907520301948776
163981697 835360464 99806095148738088
897754909 102393805 90081317856489750
6814495 993097213 1108736075332876
354026337 637598469 83167143330759130
937662818 66157423 29661166569589446
305568215 687262259 52967660722261912
156715357 842953952 112966684357971083
745961975 256969895 49446497653113569
430135322 564369554 201909624998651802
250296031 743523517 92963087102120247
234694033 762284983 137999845904687848
692059375 309883179 63711944721176940
423206455 571783187 118708189272712915
433265929 561506818 238079238575764316
76016258 924668762 40815747063735066
291429627 701811693 65387051318391569
480858433 522662951 201330448861185260
941479563 62861545 17235195194214344
452686753 545740377 92397941484666073
889528738 109842433 68522268234844882
188755818 806579410 53751869538568112
56177341 946346881 35482409058110682
647854221 351720091 25120510986797560
874037061 123350077 32206051025785968
14943823 984715883 5429744700997686
991675667 9079064 6803131516811309
594012001 405942537 196566219177904946
549426441 449553951 203380253314278784
353881661 637788105 54735088006350565
169630493 828003479 71429751802862192
835782202 163305705 131726814260073207
450391909 548292407 80111952926729226
293567438 699610708 130132654343173431
968267983 34981909 20773363598401528
160346386 838847916 87056835905691633
186831329 808260577 115031442350462614
337267445 656040398 132497605520287860
102471795 897980771 75565482871181650
158521408 841035591 64460843980732108
176088443 821549753 78421495814456456
326974393 667516149 107990355546903611
459489535 540463097 191688744127901688
181233067 815665791 144090228159963342
614362993 386251257 142643016992791926
504915739 497100122 128147250899798914
864094449 132455985 69879384536981237
206411960 791163313 29025894067334421
748523959 254106205 138182395160896548
467718765 532364802 235531140575525327
92306717 907560920 14562068767249062
72857385 928238961 4489608256632501
970608252 33106117 20427040662980692
985675157 15320723 725264599915312
475449689 526802841 116470590744012406
93495743 907097731 15567734525902098
340112386 653185037 75136096613917788
162526197 836691761 61891267553938821
559020755 438355541 171563598862132680
977579569 23882496 3529369655626381
764143537 235964165 115982332921626249
260183436 733844193 130679890352353161
181583910 814960653 30586268939121741
690299235 311195503 76492163517749332
399023586 596075409 122685820434212073
588210185 410976703 5864838632795698
133756841 868510629 22103732720266470
719295149 286155423 126717205618225254
746614723 256199937 104318169523042503
841395313 156770494 92166284165361894
533678569 466518907 133704256889913044
597693969 402712799 191980630797284256
71212860 931061603 14996097067982096
104699590 895915367 2892793562057179
545355983 454405874 149541140354220807
475568485 526748611 246016513992057310
131136943 870972845 59021268871559296
791624744 207398781 156370929024187027
353285863 637920389 65427340032356049
486970125 516659417 113233876927691990
447733705 551455060 38227879789044238
337297305 655961322 119066554235385073
232540028 764221091 160222186536529798
615023945 385534251 101109068983904244
796486838 202435952 158422000696941711
443412273 554855077 115633645580797494
70328730 931917105 3903206922759748
431999280 562788421 205037129880139469
807412021 192737072 110099110559112569
302123293 691168981 6835413029975765
702257218 302159540 210302862602327887
172292126 825186435 62632123184226486
805821465 193396811 26447078689443591
448133608 550697569 127335967258491900
304976013 688481409 45336533515692860
910321097 91477023 52793562249122088
786023396 213149195 149736776218736014
610089651 389439021 201648915882511616
631127117 369177073 120716984585993108
566428697 430768301 122258578913047601
242870897 751494037 16745804977433319
155252077 844991057 69448588431038019
982706573 18818049 1061049091177749
858107429 138674869 96068494785498195
289427575 704635221 165802138818755208
936785969 67069247 56492964374839004
150803210 850073909 77948361755440058
45000945 957236799 21001257731147907
999220237 789379 786924721149104
728945297 275105313 1413155501068806
50204647 953556117 39482558116297128
837011237 160987346 91760952093032464
154230358 846860008 7410494759788759
815770161 183629444 3397601757167840
959576065 44621715 9990917436302460
428044603 566342337 68065676105629975
422649956 572709153 71837442169836738
541356271 459449399 29699831660421781
957634141 44904257 33581291783672136
576219278 423378020 188961996733774578
130910103 871086264 108491722025316711
464799246 535737631 72956595327531132
880482687 117785273 31580333079858216
186388245 809187741 85346076643111338
704969171 299187917 39189105321515684
990336885 10147361 7698112659537614
460102895 540159341 118758781365759348
671266509 328849103 6380423130088817
747580033 255101997 20562208043931047
87047740 913638129 27397204423838077
372742045 620567265 182845031141764375
541681826 458260161 67687050675408546
156244729 843638402 30878468885221562
179489473 818765268 114694820977297013
63482741 937980007 54838059488722375
893706658 105652652 33709482962054587
692348752 309414441 36557465457428844
524796389 475393635 202192525812977732
527804290 472357530 217449334200626143
304983801 688402570 148748324921334551
98336413 901124353 33731792121102060
146609505 853026901 5943688193746888
993029633 7829253 397384645902806
415850435 578419323 139175189806380158
385359449 610469893 133410980808309774
278783235 715755585 190804463447944892
923048849 79136320 26881785427989193
556157377 441941633 29155627436388390
496533321 506122883 197799674654475452
414962177 579592463 208777686299422509
501065803 500765132 15414124863979432
675435866 325791675 217790855360699145
704239037 299649510 50116938536445027
518479218 482709472 78273012632929998
976340760 25823577 14663205756326344
538508433 462775366 100171676534262169
555894715 442113570 115359200824783393
763280641 236465869 76915880085360649
106325718 893175165 7165669188051856
309143225 682425989 35635814728116904
284991969 709081107 178643576743603796
485012227 517584078 135647766096223814
892203778 107047297 29143581117227850
98308626 901191023 19303621407091353
501029525 500841239 17154949263760286
77186917 923747901 4746652975869425
158904506 840594635 48379583826504921
250402748 743389251 183689125816139233
941608281 62774949 50718788816022614
175501165 822587609 130987426605597309
342082811 652294808 194356021284339580
794107873 204638561 61828959489769425
372733279 620607951 206612464307462378
956565269 45830141 25861604907325616
43028457 959281444 29905644311852336
786398733 212449934 84267049391632493
702540 999131169 408880409020552
31528011 971104537 24999906129321366
637882189 362525279 132087127665337253
424089167 570597982 66057058287212991
173549796 823976277 91305506377523171
682785517 318768782 139109705053415350
502870083 499391465 114153298901455700
274778330 718233040 46921802519473447
618118077 381845803 235959183492065826
712909947 291621323 107902128113960932
968491417 34199855 9212662648957030
461779397 538858337 121915857640005866
128617506 873482269 109820477642924880
809705239 190907237 111306006684313580
91038233 909750371 45857819491527001
754718471 244734933 9546291210206600
863295823 133059813 40914099481501696
481022081 522198145 222374853236697488
260188206 733778078 70377614476080145
464886853 535407953 207392964314212036
493980219 510078619 6591915794017917
940457260 64025385 53450299669930109
892348213 107027149 39116490884479064
533216517 466930689 54475377633534026
151870706 849307449 45909050292413423
153377723 847565894 69201832093839390
884727156 114530761 8184948440051888
122256251 878018472 43534601720185501
788824884 209970169 79773150355993695
723738293 281486664 106955216542199067
350337831 641052829 22924059630405920
782947411 215857048 159991617564302869
71742853 930239587 260699585775207
54768438 947787053 24591771528322050
182013161 814514915 120891165040280956
512868449 486614638 45530479974802304
68113201 933995679 28461314383042697
808648115 191522150 115886966751339954
672690689 327979612 91762161898065518
210670437 787864313 6485242265173179
365449277 625180602 127012227417979012
777617279 222331817 146523419425469570
741296749 263332076 157884379478452227
404039211 589614701 138720948748219539
920127233 81467481 66383576243980921
757104820 242285724 54398518442944250
815874330 183458729 19647345250309593
179638737 817816863 17781458249427544
509558454 490986021 228637540250178265
560600417 436137071 236968974084830144
641389137 357098858 72788387704212804
830818331 168057676 110435180026164941
385091633 611350908 22953493559746628
345882865 648268728 14567120245795810
297357313 696659612 54591756684471754
696758728 306216815 89553679185732179
307234659 686038049 180288736982865923
13879167 985564250 3869932881552949
403748929 589949031 10517697578306960
875272330 122337865 98097199878936444
883809661 115319305 46444540866490843
698959015 304924084 71274105795132329
719512982 286131713 148205426979129068
907001493 94356218 18798938777845277
977537067 23896865 21868889082377817
812940229 186304845 93746580525041986
336031503 657796449 58038147301286304
16278305 983492518 6113372626430223
329161549 665451448 39670849769448007
944041566 59572277 42871297398365039
303937155 689804257 25323304777608640
237120995 759123169 161738200320604014
824905185 173247238 35252343969764506
669936981 330261965 78475747779838242
104505800 896415555 22810065721828061
422308563 573302007 89883712185423728
388461788 607279026 209927380354084262
492662783 512217121 249991911170858275
709813264 294176238 141364187015191334
11438285 988401979 6467390349824787
384390145 612158445 104261730000529996
482661676 520670339 200851390416943772
993570069 7181859 6771451202422180
578348349 420538548 42532072989733624
817412553 181346861 38905246881902530
490793901 514103913 20685779042480968
191759265 804209537 56825018607621630
490262485 514625743 162866562790299288
38175688 964769632 28232070581824938
932112565 71792110 35899377662682640
29904575 972665407 16043143844420970
575691637 424166811 223304516314074560
261884578 731728021 56611065824389001
356921885 633984457 206503932754448914
171043989 827132034 17563431456484450
638998718 361753766 42185736158859491
487997337 515887985 46554855225423394
225072699 773565095 129191159197845748
737082227 266242315 121845732075782037
627703089 372262952 214040573598549429
888271937 111620224 1914476626366882
525135653 475222453 117128801571388170
372481689 620767295 218433497107511794
65156911 936824817 21760197013228137
125958842 874971397 86100392401217989
248894457 744660289 105704154709817474
882837483 116363804 20972933020372355
622458153 377398189 206696050207625570
833111235 166118307 116792324266098830
629587609 370494103 214053338905809852
192343949 803184876 108242007321567867
179429136 818882552 2058064910460755
254311349 738320392 99001305525743957
911122770 90881587 28546267712445673
342429028 652023489 147870865262923517
331509379 663002891 168296932259174208
615975799 384164137 206666501752088438
399328929 595438783 986135431821828
941798817 62471003 42260790502767870
869045309 128846010 48250003137456858
57249795 944183693 28460283691941178
970031920 33887436 782785387740332
983736321 18211776 17298501808365655
520966049 479872398 15316576263029220
396535194 599730177 55188871687505443
970307231 33502520 21902987141323018
481118602 522096571 123332465010815284
908034559 93624541 55650036069074608
274764351 718233661 179435558501103304
111265145 887074013 45243404780347458
673440319 326994223 218394554142096099
737038817 266566870 130197161698852447
709350241 294583786 148435660687604865
536630616 464237297 241612578286743204
729584092 274113286 193401555837292874
807755713 192155166 48979691541666706
989273999 12025129 7423699312989736
747159687 255437201 39230265174283268
325726105 668251216 42231573955442894
418621687 576759659 207578260034806731
843492377 154632184 54597506127570023
737954697 265870637 178806195407453748
832674559 166254402 114532582627947833
522609961 477026909 155470933908094418
896637895 102946113 58725993706062650
557349599 440489132 43156791608907429
569428357 429079049 156666248493836450
136071493 865820135 81175626728633773
818398415 180384440 18501390265662598
143519943 856916159 42539070651605666
476173102 526385138 83380070296871369
819935009 177683097 84893376305059783
786368394 212454289 52995638562369574
990742699 9287734 5940973865652223
221834209 776941209 162903362245360142
912840271 88942657 31471674510552912
583809149 414675173 193888953879959584
790925571 208627489 99063021624148990
322497766 670566658 152699548268290341
662595928 335516189 30203575849022157
659423205 337668993 53528910105579462
947893208 53844005 28479547811941986
262946561 730162422 123613496732252612
614581868 385729665 71590305257718176
35795937 967636665 30732241030702195
597407114 402725639 166848408567978232
651640139 348121972 80636425240009660
759687523 240657643 27813229185395878
479097684 524157431 126650178962504285
242362934 751875329 24523256161147091
696017235 307069931 5683308604077516
625914021 375307629 82613702069945898
933571185 70054893 35111868789790432
311178305 679839477 196079628649865067
135950629 865967711 17327720349228284
722674792 283735097 74758130645829921
706053997 297822721 74165783155041364
428539691 566304834 172472864673248806
469197661 531057963 225754310834587667
872495885 124020215 28093583350818423
427335233 567678745 158375869049946892
402725826 590994755 168373817899857572
40052973 961953398 18548440336803925
673640501 326743899 140583311696108522
943537068 60276579 16976822704933657
224963484 774136285 6961782054431918
211980503 787051555 55957813199871381
754077781 246898657 110175043753663518
228767966 769920257 3964073326681462
290325865 703247119 180109545719745608
626232767 375121667 73589892710323778
656146148 342743025 47317182752496668
992909233 8061293 6723882673786224
908828463 93017837 6335888991236828
646018299 353163259 41363501132476724
231384237 766534881 67857258692514217
541088265 460163315 129606361319059039
292206273 700790793 189374126668569881
325537884 669073153 113273664134901369
105754377 893802125 32438892737400611
961060057 43261451 15911623480849372
64275425 937597496 40114364659174143
546948033 451923721 107749159813858567
860667453 135204376 54340931673084974
487929796 515895873 162248546092202843
715130759 288410147 143280914057260093
540236121 461116333 25744967663712928
157757972 841653309 33798217172504132
251280542 741162345 131271518636206819
379684379 615120825 56744902031158460
29198125 973413765 27199374875842968
863933179 132490489 3640981636506238
763684093 236338929 113850262813611715
888321735 111615642 33621510419120006
53261221 949247463 31549180565956852
480107961 522975286 32844151672864745
682653457 318840057 101678145417179646
215049143 783591811 85119094277942454
136769077 864432017 80854274932752511
67102325 934907457 2852573944652660
931405810 72530577 56624011412777772
128156783 873726283 106255673989392413
306208637 686826058 46401727207052947
908646877 93348561 43254319031514398
155653626 844683865 110400321612313960
349180407 642971937 189439339105175733
568787895 429743221 174377557512745347
240044886 754287471 80030190743149653
806636069 193028089 54916110679148159
992858509 8304281 5131291892044276
727866375 277162106 162870418210189537
74900434 925601185 42812410420335952
545265305 454646099 52439713145930830
207347777 789355453 16002481707608940
340218911 653072147 91952078086505388
989578581 11672377 98102012517189
32926197 969928233 19554289037063744
746391195 256374427 4005216708391750
417985017 577161049 124849025051584469
648965989 350298834 9242255999086009
754387369 246235105 3100034315680072
547520689 451208617 172030242161542666
289784683 703404568 28806857920552933
726665689 279115411 32203474196265423
922960081 79233409 61261918472275922
180678895 816348009 95201064017027271
236678921 759862430 81869504941500194
892990220 106436049 6128260529896853
829633581 169026484 110621449134025267
603548804 396737688 45304678521284636
933947121 69377457 8823114646412084
625385468 376169705 203516583212083874
55946155 946560020 21872280249626506
876888067 120863129 53016451035554423
651671032 347685705 211012698022175402
634733901 365231569 32254933270422668
214090605 784593255 66835226319227768
366789793 624835445 59136018455848404
771657690 228018787 94092903923250073
239508297 754988513 10225924835065566
643105579 355596645 10291700238628388
875423681 121615753 74675956258378876
131726009 870635761 17682788543961834
628683261 371584589 115973768613846722
579108913 419275033 230378799012381014
381929093 613188561 98516789663889857
450148977 548422785 42489188976075888
580788973 416892161 178442570848926596
191046142 804330409 135655518708316047
14702257 985190737 1660918767747612
545284487 454540173 181786780708553568
324661969 669465642 181243648951828578
35650261 967812980 19095934833789531
331935877 661770076 204017034561627008
167135397 831075527 49787109444484828
399374183 595282993 46051972823668814
826255945 171739680 98955588761673936
480878593 522585537 200228652231402568
931800319 71849891 26650147413225407
987786515 13517995 2751835427601064
7042433 993024667 4034086081982586
521446185 479245045 90264351409012218
138257337 862688833 114201461910667795
288992968 705401643 175382728119024521
589114693 410732669 102420897567686624
917895427 83168835 3203118248948918
775781316 224058504 147698457364931793
378560723 616660832 222227123235533801
597166961 402994733 108526045664049115
536491265 464505217 82341140650053766
70993567 931478337 55431370688354813
571309617 427445967 203961034465162072
201702603 795295660 24105822203879736
252298108 740071157 158983697641066021
182269481 813477473 13841397927232804
864778559 132090553 72031323346558574
632300333 368004375 189708758700185706
159337924 840193633 2591088671672027
195363243 800373216 115140536976764487
287257473 706233765 47548431864154168
463732868 537004864 162606579886896040
827759785 170177407 8168372601134830
964822817 38304907 26856377312180620
214001922 784752941 4866355002275373
284450972 709349346 108091951598805748
995679339 4469061 1029024945668495
557013893 440937932 22533460730437896
596906996 403488962 63752905492359087
539772856 462357633 120510748816305773
191556797 804209717 91113507496099162
948659257 53349907 24839349075487356
818937835 178849207 80311502721435617
599636255 400974429 80024932793982051
643039532 355631754 82566467112970108
204051302 793640255 159473692696793977
200466801 796372145 69533623096090162
72790731 928675701 48558363380400014
188533721 806709177 144449391840412483
929240425 74737339 36255243585268799
836801793 162150917 56221090704244086
960860767 43421487 17833951357444366
774430417 225482825 115784641290068974
492824852 511839934 239281850478541168
167969736 830740436 6835233024459140
356083372 635038769 172653043117324369
549621223 449393763 150027686791388336
245343217 749303875 97866732766820900
571640421 427178079 106509905348348401
920973786 80688769 24579469643404633
861595217 133578433 26498261178652996
293072611 700463305 151277542252871218
697109618 305903333 34020510741734929
902464943 98445128 38900599960395938
631691159 368410678 23694396654383492
121709564 879091969 34855257567590038
619513777 379724902 161555831880105628
771549345 228813074 12037443365254645
794405301 204533125 9980957781858784
358078936 632865096 122910029930340723
562249281 434575329 117717124286541955
734025164 270720467 9927572799297331
149879449 850570801 124770247588620128
639693693 359713070 64040272929166422
938512493 65690591 2458480363524121
518024193 483142427 29311575186734994
507793481 494132421 199536602108801082
273593318 719278929 52438797751608718
584143329 414238442 81711779340012955
89473349 911887831 45285016547707928
687877745 314763350 197931538917718835
16131371 983724987 3042307409051726
85923409 914211633 45615160760272054
877530907 120050817 83689876903662736
344706591 649896751 152055130402777450
327290393 667423143 106000420629223330
657073323 341935863 40560023618861916
605237843 395433427 17331303377967052
374606118 619584257 227040256449479155
537721555 463697621 149702776831874896
219323457 779946533 54844199708390716
304086331 689584701 25454014480962688
389475205 606794555 126825336624398069
338530531 655059601 77760903675183152
846798385 149143320 18285491140165910
299606001 694971389 16117747935365307
968301108 34527989 20378483271178388
354843257 636329835 108718089960751210
842421656 155846073 97553239790160147
258479163 735611931 135126844553182845
776828329 223580141 39843930741789049
610453001 388488700 93371223706480060
578008006 421298355 19959008809888596
806115861 193225988 72799918307997524
681511205 320284221 77666162275340147
82488401 918635972 13211464018823518
530879745 468574842 94466050446796511
43102507 958971913 32375349310725625
269503681 723876691 167423799139843049
953567472 49531751 35181354205013453
441206709 557020737 105474171195457077
362336087 628659357 2613418598601960
202256915 794345931 103568956543728986
318791413 673050689 51365627404795433
891111040 108161485 79036778772583957
45054355 957198369 10878713020979603
529827066 470784971 47698333655922932
860928811 134354083 18093171186643649
427859634 566411133 114163562244787224
614268968 386401125 75540754507315867
579271566 418926941 134435249412215882
579474853 418735723 52735160234738956
211196495 787563615 161903059849619282
565326279 431413602 214878263866266465
498081601 503543401 229404430058785966
272962977 720036795 181723187835786443
634348568 365556073 92621845050994381
457195241 542143807 211108617378782698
946011965 56556257 42273026237578938
36180843 966460220 32626573688595629
747876593 255046557 49420032018630941
690289897 311246774 96417065786508784
543524194 456484665 225943257679063997
53544561 949099748 26052837852283983
580868567 416639273 58399248978393877
634064983 365564682 122917894555711778
5803384 994004823 3805699390235006
666031845 333049955 81131541828359782
329077735 665654105 135394793670590088
639177247 361228582 5213279183614473
541059585 460422961 226461070934089966
436581092 560245733 128432282009660134
304520289 689281122 55782030455774311
331321227 663292417 5077971562124077
727985575 277101937 10675249963228924
53643955 948850346 28346350836157733
788672156 210594217 12960393143038767
524050783 475873353 104835343714842899
118766361 880819955 15145693680162516
641210457 357117315 224253485559614145
141133217 859532581 25103475014069746
641875643 356661479 15747167819884738
12539169 987361889 1564905318437761
744492813 258602637 41024643468432946
54634385 948331977 12284365462986036
833348875 165859553 136946779936511210
442279361 556049894 208691773885778838
269154817 724719998 29295682407502914
570843261 427791619 132789460278989311
922093899 80303290 19393141056393860
875347995 122014249 62314088385135271
756280117 242507567 92580847655408492
860755048 134828954 98455390619242456
7420221 992468425 1326066801060378
877552718 119729831 52217219057482371
466932721 533012016 42128426862066791
414308874 580024002 199886612717895452
694114342 307794219 105819040533382052
602558212 397198699 97787242766981977
105304345 894723297 90619795216168418
643139793 355589521 78275608060973996
334757737 659207169 218719927655654614
218815443 780397880 100630768970700348
467888533 532335882 153124104675750186
958312669 44828687 24688290007339360
272551703 720530729 123653505620408130
580185053 417702857 70263174894251249
638633001 362344300 220247011729453902
753788195 247221674 115945621814350007
391871183 605037925 124090658963130497
976791083 25647745 25015920248076052
876055599 121267804 36043730261424535
734415356 269946239 42292671864442217
361541023 629392129 141301884261500496
240207634 754042125 86548253781936403
54694527 948198448 22434657177838602
336187441 657563405 132030121490658133
325957907 667854684 160262267106207290
657073050 342028293 6603426268872268
950081457 52207338 8194500865324518
464408476 536347695 124620674116641050
377963894 617744975 155383626176019845
441841618 556164619 226107200101501164
58875988 942170557 28102040196978726
193521329 802291421 114092945427660890
879881825 118063777 24000994620879356
5090579 994857007 1109638715210178
55394573 947272242 46082349430577950
363021493 628281433 69821200089019145
823281042 174849169 65299134515032131
313185026 678685913 91238120968782589
489508225 515229313 222964912776722888
127849470 873780929 101325358955998702
732632041 271772060 20259647664968563
798613797 200307789 132704754442920393
470723470 530134665 85700576054209978
367236188 624516510 73707329145366114
262129211 731327053 147225653284080700
846140159 150815445 51875102568919526
380681297 614607325 19490429011406653
432961604 561711993 46043489820689103
441258514 556901223 98554856861683495
830584556 168527346 45021567610133216
154612001 846478006 127971358098146206
37241976 966217626 15654314522940421
374009548 620182322 211211436398884116
652349302 346864756 187733954889786052
232140383 764871329 81932805741842192
513632742 486261324 121720388753096663
419076561 576608876 45259065688296401
624104999 376758401 198337387394681886
601104879 398636021 114140431253441328
671016841 329209362 182855203500111391
100342662 899406265 67835182999594039
722085297 283904709 77114433168314077
318898060 672993049 77809356902527717
396504593 599768941 228217660202654917
48307817 954551525 9303925329263239
975145125 27300924 8437143600110737
806874179 192921465 71163599904766248
818175051 180574361 9975363952114214
419355987 576552107 144221589443701241
799204213 199573787 126332345556193369
287150555 706241537 113992112729963401
30568189 972097217 12109288974607688
533497517 466775493 142092175755335594
552036059 445839968 108598938813698871
838237905 160306153 111773728611964265
32819436 970200889 24853267108615356
572184710 426436177 51003891916467789
417769169 577440960 166004497305421979
442329485 555935017 92032590364337746
402507346 591143174 125881636426480661
675218465 325931485 177589435263901598
741558694 262667073 92754057164818378
168770811 829437337 134712059351980056
817810504 180950825 86397432373447335
36894977 966266877 29062265106244328
78266558 923193308 68881755034760446
224252193 774658595 80446875592867902
43272427 958419785 1292763394077916
622920787 377137007 127775745341768400
41302357 960967397 35599730354755333
589423758 409925119 115169045057988514
476453705 525965933 169718521631304182
677341287 323339466 100089053079669248
803188462 196334365 70575949574395128
154936777 845659889 31249416765286596
398303789 597263211 202706314618429710
528261920 472048865 246176685175465811
6607299 993539953 5050545627714342
711435733 292909236 68272609668554134
311223989 679816405 70482612823433357
37017666 966259227 1374139253600459
576446195 422734986 35171425494073244
953434828 49790429 30689068690359504
894588153 105323836 43927281017563229
12222254 987747127 9750340008647240
549132297 449770497 15997036679162626
353184263 638469585 44274384846352080
633935752 365781607 161143027218038058
42720689 959517335 24990509531617120
241558967 752954582 129538198849734028
729519851 274176485 53897533531626026
974911785 28024087 1014005313814252
157802977 841615349 28678414270404068
963285074 40029881 30608752247093905
377502933 618093777 117098728517014484
882392123 116745917 70208259096090255
618043784 382600276 164186987323430863
159481965 840035276 107710719652120035
527194679 472753117 179051893921949672
736418495 268234887 187388825187936184
300391134 693413748 166692247035502629
743139410 261052495 144112964304269251
105894812 893726603 93441522586372660
454150785 544736049 181734143863349588
280860345 713386309 90348451606688932
389276033 606923233 18923127838605212
378533673 616728294 144762402913177783
650473115 349841337 47738576415598016
344036478 650783492 171503711574639118
681655969 320023961 182737414597995029
315408145 676331949 170078122058350336
976304545 25921039 15045112538504010
997501333 2224841 485273175097386
887609121 111929073 97952549865560328
495187881 506946051 216500282521990640
192493313 803085336 34717035951549629
104564781 896288172 58482813644262375
318266807 673717120 56469660153900087
92748473 907440924 1630386890859971
653663401 346044945 22214466005616623
80133767 921280993 73572945782667579
319422189 672335390 210958396580694578
671412881 328746624 190568870631708155
382636841 612917914 131632483470751649
352707008 639715018 55001218428979829
58196207 943500233 4464491332049168
793489009 205062284 120795502471642217
521845921 478107053 81859046768494051
818710985 179960705 67199008235574868
974014939 28438921 14727267304249664
429594254 565126005 12330457986307957
344238123 650744923 187425014389453596
791194605 208434984 81252464967751356
899334029 100589250 84281575583588767
2909608 997036545 1326141484501929
416375425 578150281 127834963998826352
753119584 248997377 9822468036296484
235577383 761321669 158430900506197214
991524393 9220729 6100069562946486
252868345 739769033 60561010792567728
642946950 355670390 128531597491212080
485948513 516930709 173561268935140869
585580797 413318513 21898538972391816
817860433 180810932 133738637973595852
932965627 70346975 37334880860378835
512245725 487519449 197506851217273026
762895873 237101883 92216600676344917
977250123 24222034 4496514486467877
607451143 392747845 225940198877485304
30412443 972245525 22253627759731765
697143377 305801271 48599180620580518
166145992 832391537 47222748585659591
281733883 712344257 182226814805732043
221334874 777442384 47953572389903422
841275557 156970391 29244711583050608
778288998 221006983 164380924342410229
50531209 952843668 11205732866343452
146873201 852820649 93659248638374626
309342628 681897097 49839317025327672
423360833 571545213 10107858622079108
396388396 599795249 82039111330481960
970549863 33112417 5454179095468736
892441387 106854211 8152407700177365
843821057 153589289 73275614829840040
706656637 297254690 173670261839993660
564713860 432060153 215656387667194735
176081441 821574759 8251082812227671
144186745 856610847 102481685045550522
937820015 65903529 7915393268037361
615963502 384281068 37196406675589177
651713130 347631867 160344317329526711
404785 999591403 73510659871714
485760837 517079929 18567448693545321
644404439 354305023 37688424597115126
737056349 266328739 7317218318827569
962922035 40344520 2987726180647557
912540673 89331201 33097412433642304
818282555 180524993 42157749257234062
709364953 294575182 89662453576856880
150800618 850094173 30885194514603613
533740001 466513543 31706966575773544
