193
460518 857920 -609251 -328018 -317743 366859 -321024 660004 653937 -968427 -419008 -40465 401653 -828553 -126262 -531576 -545029 150376 -642714 -573957 -386451 -669291 126568 544038 -582041 299330 620087 778925 -423492 -449967 452111 869007 836359 562232 -884908 -415754 -292491 872493 -293453 -682340 284140 -784378 706556 -724673 -757740 -801675 -859249 869445 -607908 696183 -375269 990785 -889163 -206956 138448 -581243 -433796 -663737 583441 -723621 -898494 -247300 -788057 -995472 -545059 -883696 -921668 744984 522521 -841573 913790 -495635 969415 -431130 450639 840546 652491 -48959 617257 -238781 -371883 696752 729480 -937430 368466 -726544 -98989 -462832 466881 -116429 -541704 394608 594281 -64638 597703 114971 -9358 -365228 698694 -626315 576135 486519 917848 -960407 397867 507375 181077 550520 -737182 -472160 -859546 -521402 103451 -473685 396908 -635923 855362 173169 -1394 8904 286078 -418822 -225603 251189 -537088 -313512 86162 675344 -684883 -656559 -590406 394478 -216306 80044 -35028 910305 244349 773768 -757808 692895 846239 -219407 864144 772183 876047 -66980 -827512 -766241 675014 808403 -285516 -422722 79971 401540 489499 395273 -323041 -820368 -188981 520024 792245 444845 -403267 934300 -889319 -101874 -763845 -802014 -497908 277696 489619 -868445 594384 -835766 -145048 257409 56592 820929 155466 110608 -548048 -668300 209509 551699 542468 -992897 -275191 8469 965889 -701459 593927 373864 -449874 