371 132 186 14
765042865 457299636 350220137 264151683 818791929 89340689 779941913 927018038 493369867 37106227 427127281 959533013 133426122 185720799 28421285 111629776 915803595 18189336 579652575 812788028 501909300 418203745 82889245 463739568 332063089 418454628 245929109 77604479 717148101 74774497 134333242 172012246 958375265 612648599 15660995 835559637 611113999 832085698 553446607 632985729 776409633 39571113 64181765 971832581 489669265 970495345 725352915 344386267 680472594 648982223 885804377 565003424 229667403 676251247 784015340 702182888 252637720 727554550 570058989 852942127 466602301 306712194 694423575 985885954 792897634 585247857 322828377 343786610 193838453 22260973 321961073 318111161 419563949 455849830 784984545 834789509 200682821 71697334 759264109 149036621 836382116 920517465 823196086 163053691 50474225 569963557 672767339 645190839 560924220 34457823 106324462 863278113 289647135 868301455 476857533 629636327 365131301 160483502 902691869 665176897 582680209 851717985 946385301 552390827 62046720 376391456 514910966 475490481 282219209 270014461 863156697 643045745 503139373 221538177 367119723 393012078 818997681 207229717 766500829 179533051 462323329 966979694 229585240 666618447 824987764 288937137 258030205 196480985 969131607 572177617 506759295 676898025 193950584 736430837 648046701 9918191 804293735 118087659 943162753 847584575 358770374 176818187 586148047 310025 935458377 277019594 699184437 817699159 799429273 356150719 12133633 582524436 235659359 889274785 589780377 366337598 254681293 745531896 487003482 571867918 184941687 419260101 922439383 389849121 113871843 352791463 663142679 167180759 135669942 264002704 263250557 937224043 931700257 794902049 480493545 911694462 720974047 874669315 904701029 909600764 249506617 189156980 158184101 33711077 808598807 568155499 114523377 810629155 11550985 825663801 659600111 80066188 403590001 935781304 734814849 448159045 325020672 70192021 274463401 235961284 403140597 875865627 293020114 157886177 290614844 601468003 71469922 617410258 186336741 783347139 863878899 861265792 678577943 424739281 117094915 243912313 324601025 437027993 953131397 867196087 686126043 891032117 535906528 943539610 419273745 6838048 469207879 208969001 984996645 536513976 902306443 528953225 828953760 427793867 632130674 879676013 552977157 449890687 624278351 532568673 185872242 734295487 396416711 394153874 881652692 761244784 57450989 580772125 780028100 482042797 107467091 734653857 488098153 236661397 984033985 144707267 808974641 860888077 669656654 110787957 608979833 251062049 432608327 707387313 701018023 282351074 662070701 266287328 106344585 578350166 833715953 933438437 697954995 242303433 133332489 616370134 166090337 758041589 66062164 324505376 307499457 468226 241398319 103371019 372379573 246424287 3139381 261232375 644304019 506896953 696073877 995391739 942906965 60663554 821896289 943361088 103424185 31473501 593471941 717540359 860711253 661099135 379249649 489956945 375777009 915203965 700525219 636284229 915775825 386280713 583090421 642447447 709979505 855846145 976866973 908239363 118384569 216075357 650809601 228318145 940501249 84388149 290903534 787396111 303522787 343481401 407886294 467224350 103477561 43535427 93683951 341330612 673583457 34111779 375549059 542970764 909995057 108254757 532436839 323661952 673356498 421680669 305287777 37134577 952716977 939311429 907024648 91741718 820096185 359623772 353764143 746246921 70796712 761834977 832051673 855030129 970088737 785011513 587503363 16433216 311739973 192347723 924670865 362907987 884857079 879896177 277767012 978474474 46375341 483002369 475459776 385571649 569976943 979838867 503508332 964976952 914989476 666973697 485677815 561054150 99210713 420070971 306931633 671714056 759231841 953647774 580521725 127781690 749870145 458889739 900585205 146418639 855270378 957102055 696001692 343333769 867414933 331855701 946890801 903903531 741390703 497765911 231400357 74344769 887421182 204359374 802673430 947935761 369470665 670390960 848482778 331099566 802625775 744791023 219715182 553055065 436988929 14521767 624557485 44552291 117287272 60895990 626678031 908639179 346072665 124097635 13333467 913858625 384462276 59802082 810526407 196536589 836155664 229735077 488835729 394423798 722548462 5108143 541771157 139510746 956180721 460233691 909769858 924920126 162028127 801742566 886557873 198025529 119840853 238539133 512868341 100536263 274856875 977539291 555237503 94397465 507778878 957372775 983452399 996023617 168194579 665775483 486092377 206451424 769232549 537341681 589529025 423874660 343963921 836816531 348029097 433190303 407420233 363468501 977579273 953283738 561402161 935750838 933168665 643879057 327369180 315403707 62130985 53009078 471007659 977155375 294947667 320653121 627800125 695671005 852708251 798098319 889491941 564308333 249437961 839714547 896572797 318110283 114217577 734961365 580631299 14762961 928044269 537443406 662294794 857530818 10580646 352457849 362789018 654067437 168371149 278447557 649508904 243866617 396288956 204898689 411721321 152116641 487869740 89373913 27036721 713100193 600980900 926787449 765403789 454916341 961608777 286732899 827787736 337903496 9032655 103984566 800858351 153144376 267449251 462997073 562234747 93783737 910758536 721596529 316904033 763149793 769949784 97604671 364379555 35597378 316864344 135805725 171974032 209340023 207928753 734101975 411631201 86980141 815286649 174261064 313975833 499973403 914407262 76195553 20666391 755253946 550042343 751019541 735669301 531504491 445817905 469309895 910919864 239496417 317130881 465828352 735358433 654851087 370465587 280144174 797690023 232299118 845789299 764816259 849968838 617405170 593069509 372592992 429223462 107879401 495817103 219970929 217153797 243659165 5698183 971169299 639170617 904457491 969059337 549079841 753803266 846274463 63260657 8217921 38385621 356065953 199587569 627580271 486439681 531672158 798762773 511985457 21397515 396814492 923744897 891643753 485893838 903229890 40594991 996175795 210338593 824938679 326222621 601165721 816699233 957848887 169839710 365669425 884591681 628451843 132778349 390494295 508749571 274638131 800439451 339868513 567718080 85850169 831903753 16686766 458505029 769805753 448271795 974448500 881637205 918383295 951797717 900363425 352818123 615033185 335178485 253315967 406919405 415096672 86755226 279552291 659168413 521260685 502817729 210550273 534945953 228664065 337455125 114483409 806641993 857162604 707714403 790838377 461965217 709686441 221476257 47501739 498394911 724149843 511671450 978330423 589771993 212943427 32369689 435678445 188931021 609364681 299557259 632829495 915829753 488809480 797023535 821219089 944149174 80041307 875947721 50215109 688171713 51229413 625218251 606537219 253219139 172228609 601782449 556846063 334884684 266374351 296270283 827127795 890506656 645744929 810236334 417694672 908711857 375981833 266958550 127046797 949125807 895861873 48632871 580509897 789571301 117409297 36606181 325329201 851143837 829805899 814124713 536539905 646901226 184718581 189670777 429104209 952394343 885279473 939910992 175217917 851342559 7948180 139733621 472060777 218663520 816857311 669183649 783218651 579198737 522603937 405129786 259461833 31277705 210039417 672238547 360406189 399322822 14740113 733787257 762010273 287747713 927255769 892806401 907102065 527537383 15813707 449190656 500951815 389765995 451632193 210785686 962046037 948612303 310389619 226671618 300825495 239102338 980383478 474264726 921917157 587197487 710821887 208707097 755800161 192928420 785864305 429375358 686365769 560310241 615912031 455689500 38708086 118649196 633228738 371708001 705200163 206855509 747055745 254783073 919597259 92403832 51804409 908025345 884433414 860436166 181161751 263450081 809518870 942233205 410816741 644056406 424565766 818674720 998740765 803216180 410036814 343203500 929528761 2072405 292867333 701766657 717810941 672338130 803938937 517118595 564593513 215394045 111214195 55609763 51432187 345185865 841926160 121068342 395444486 770318329 809382109 243411195 716552305 298872702 209540703 439881921 753636037 736192145 394998786 734753317 591201417 769304049 254576997 586670780 78689624 56010452 128107174 165928779 233549468 358874515 779168146 233317506 716727263 476428453 182196200 622726452 884171269 991046833 902166385 69593463 541048993 113453215 857450325 766362273 975135592 322230109 314437376 835522550 544927207 793650509 378109324 573032673 40665943 430892565 917033753 738190651 72585942 701410811 537607943 898858969 700096998 801871649 200171837 999118300 10496995 696998639 896683524 840548928 667818127 610726854 512026253 960361557 579732145 891586439 977698609 456125942 157249549 799352959 211138837 341717559 824752842 193787751 671963761 329140267 873562953 824367451 79504296 97444114 917312433 915062279 807276993 381083413 565124817 795980605 534374195 734216177 192769785 111063150 668478629 110992877 833759663 868046560 487845314 317677281 198106521 446430045 963094614 990563724 262674819 803886462 581336841 625051020 124761701 304080961 276789317 403320389 772874161 665548678 866957377 562816547 940622812 95126102 114730430 29976189 346437409 655008557 715070993 768925837 442781637 695078657 831516839 803709331 67393075 7432623 101887794 262635557 486899815 753929967 488415259 29620247 601939695 568325419 639211852 971983121 217170865 94045951 955376345 915134055 84385267 535144948 591388546 341910985 317179220 408791661 579807931 849052736 84696693 911233969 901824992 304070700 770276545 544080809 144681814 577038369 592483420 531467455 526903589 134780013 274198841 305167975 124298157 275456321 355203337 113972353 857053817 273963245 98139771 515103105 478759658 697347345 666126788 138079105 847872361 356101249 145893669 59535068 95879429 664619149 436596774 848772321 396588705 928806921 722554717 172365857 672034758 89091443 296390528 353862359 674023139 561594993 256279749 886604365 217350672 153171365 675036161 261537845 483192107 808681917 110692709 449750245 662771323 309836001 932328885 510788315 969977355 958661169 641756645 61505139 938384866 693580562 274771217 210533433 204504804 703438195 50638477 733689422 880708161 672249349 770847903 515682309 448817079 691527505 737892297 481807089 930691367 287729024 736916445 308969509 921377364 428766241 135973649 253325900 2260434 946168590 955467499 24133839 630414704 2745251 477698987 966385616 733653042 274889297 405954937 23750399 577223301 76021462 808263577 109942759 916719591 497103873 762593925 765911813 661615832 60589309 46292489 289256593 991452334 969516339 250861425 706848239 306797648 331101457 618017842 772883967 404558321 478199913 140437926 183245371 625420819 431511196 802997309 667688640 28748164 95912903 315958049 845023261 507838692 439210264 14584793 726999769 363605001 769755908 590202479 991508317 223935744 676611178 814905201 519217267 7455827 954436413 