748 1 623761
540939 832088 406761 294305 597649 15679 182505 346766 791361 867709 201626 235009 350393 626881 391669 630883 132143 380673 872033 331151 377465 305013 840926 65225 873536 911114 158176 585125 405997 613845 982876 448629 761524 792537 536987 125155 70275 770081 379485 274289 808970 205751 384193 305772 304785 754323 792603 889907 967898 90973 793006 768759 746066 139904 343651 402641 940385 800115 310509 525051 544711 176643 621205 223305 211849 274465 809579 41462 923193 318049 679074 163889 469367 964860 767085 393745 832511 372013 148790 15845 777709 306353 289565 544961 922041 944083 166976 117755 572065 552131 864617 485213 308487 672457 139235 5241 299029 553841 30513 271809 572793 722964 231289 39521 47834 555573 329391 82845 321601 736689 315314 906269 922512 987945 862177 639069 513241 852728 343443 38261 240522 30695 667773 722912 349601 708473 326929 206893 405764 772650 94261 163369 654721 951651 569673 167614 387155 595106 616865 472831 649655 361225 40794 716103 844849 715295 829761 176293 892807 244639 500745 587769 327927 643565 489117 710263 187985 337306 959945 878869 803877 843546 288582 526502 490377 600071 362093 695783 947769 639785 976689 251194 651963 846301 786721 818302 605511 130377 855739 154633 38519 733091 713961 989335 678405 108065 341275 559532 588681 362410 116991 967135 637037 905522 495666 358 851567 682705 802488 268999 600092 1329 50703 368331 504129 124369 928933 244268 839929 265117 496350 432602 821025 24537 519325 65828 228029 197253 271153 227773 127307 66319 301647 765709 587457 315663 547161 452191 409129 486801 475127 622149 416637 767121 984745 659282 296657 533825 996442 737218 495551 522036 257951 196401 270313 878731 645313 188029 472129 279233 51552 408967 682437 799737 587609 279105 389331 713058 997521 355649 944767 83585 592965 226145 744385 488226 614473 544737 31385 805445 860449 175477 244807 606759 637109 78641 481 232155 97521 228169 207041 876001 519277 493890 257473 239973 269316 543206 698706 918301 979927 9185 94681 298105 406781 424922 441658 297729 591294 245914 480199 618051 533625 663049 245213 345751 351274 920369 37133 621861 508787 765326 547505 996033 305537 638856 455387 256316 396434 403032 256733 635713 355725 270007 104801 373145 771609 219945 188819 789041 607247 747981 205492 605276 938257 531235 827805 731193 103180 685477 521520 68124 111177 400633 325325 585854 762529 956673 224269 210498 610770 258337 165163 106916 600393 657473 740345 870301 529729 608494 793577 142197 232559 712257 227741 395187 658733 911645 305581 869886 876775 895277 383365 228704 792577 886589 589937 613110 368655 220185 288141 614747 123096 470533 234909 417889 592832 312388 325217 578309 987443 160576 784886 920869 795483 9021 38409 415287 940168 233289 423513 971242 918668 654093 465589 560682 645905 722315 415970 63671 103748 630418 580289 475663 235145 8390 314988 947859 446041 733425 94252 75805 353191 116797 174539 878553 327177 192373 279497 759786 71033 539075 485033 712117 876514 796593 820777 42641 925970 651093 306177 247587 536173 649793 92673 689497 395199 563545 829946 719625 274461 833094 14155 995107 564459 53201 997607 178479 624917 305623 52417 711815 376065 325723 844377 301633 463751 583721 114731 560087 492825 99021 393609 619121 703754 974707 923309 756687 216170 451636 193975 212871 123685 477075 905517 644808 787647 918036 947873 658939 91793 787527 883870 354830 946493 516006 215108 847417 424385 863719 118075 597232 537157 969706 888399 274329 314902 355075 427724 424855 821505 892125 638273 800204 583261 767828 542313 313713 815545 203706 183529 586830 628333 981964 802535 531485 357549 528675 67429 869630 809500 834583 227325 518045 667922 324554 635938 263994 322564 550261 527569 807113 3385 379967 496233 640561 748875 679465 316823 558866 695183 854949 422961 411933 93515 983745 953293 325578 484016 193025 726290 134977 977973 648515 578700 837209 612573 301217 319477 6001 631957 863275 230404 881577 65249 295417 713363 974621 317523 332572 698351 884411 13713 559969 106563 677961 587015 374941 547863 923912 166101 993531 44677 319013 861023 226905 501413 363725 397355 991563 336629 238107 908265 559797 362319 484233 188159 714151 642328 154852 909067 547753 41870 270387 812577 871009 6721 79329 516109 570433 74645 531241 132974 562941 616237 37364 39453 115023 198678 146811 740305 512049 322120 746785 49235 152656 717565 101785 523097 598555 615537 642758 910641 597092 71961 371267 558585 973065 237794 59562 691945 107091 393081 887259 5967 51469 883329 97233 990893 653697 19080 683631 927217 6783 587681 165885 692758 33711 874526 404337 333118 715949 248901 756162 92473 51289 526803 114241 301076 21735 163251 574389 136385 348301 658645 82745 401337 494661 33466 399251 188367 876529 406997 69821 714684 518526 224985 704511 399839 674905 740356 851526 679411 923201 142233 299321 655856 904719 800251 777944 516561 674239 180147 172663 965158 857585 942249 306048 978885 980912 713105 695157 327983 333846 274477 234251 382065 249877 961753 492064 548035 993503 106125 621046 496577 849545 544065 529303 923457 30884 13629 577113 612189 202039 655600 148407 167859 831665 
491 