851
332865753 411628729 611195662 53228699 503933729 283189378 381289785 393202339 853374897 933644859 855663501 986173117 810436475 536485261 371044396 23074209 20941122 386731873 49876085 624452153 540979085 930883969 968260407 540227622 153777153 389586439 388977695 836066897 610840940 277276236 53944317 431263951 434870879 9647550 279247834 568283072 205795156 485576697 874049561 333821993 62286546 165212447 303611187 325663153 888219829 981041351 503235405 803453425 839645773 703271023 639447417 142227104 294619509 218941237 89755487 328468088 530328241 169418746 227455658 953278397 568028834 908014305 893965837 282858593 557062965 99576725 38507953 106943535 658563804 204601634 792407893 280847663 406469152 397180062 554605124 728483418 548131891 939327949 307472892 621444833 926009919 788264899 814681517 696861072 477884689 783500077 601651276 973842714 675263690 192311041 982121189 596950053 932778289 717962561 621125502 357845857 80140095 218018802 416710057 957640089 649864589 313271272 512878005 292162306 305685990 34228471 645066306 676448921 868425538 465201436 151538759 373050534 994449497 405527752 252036665 337281361 349970017 738948853 246868128 572989337 286204962 398453701 306775585 521435853 120584717 24190021 212485225 178695529 95411458 513862352 223106406 713621409 795906945 33015973 683497934 91295992 176609905 322141961 889102219 621900766 675393339 967764286 336855369 36559533 780140397 406671233 334300793 215297183 862801265 997654977 29224161 398883610 741432482 654256915 82927105 390731224 387676305 500288494 518204881 847672169 601589937 976402821 933219113 525602149 72373318 478717714 630672897 955184355 483143825 477076925 306754312 176703567 519007129 815806811 50933578 782899402 215326466 264201473 746130641 329692801 281444799 101599980 434354986 272298051 602896869 241638465 112178065 536286459 668689469 355234898 610285655 911001411 644998834 51040941 124948607 182861257 667394330 455018473 643946585 459947048 171441417 204779595 461493051 279451583 771728473 854904293 279229901 510317446 220271838 407699831 713077629 828408943 251522577 659069381 59846039 763900109 300196273 705271698 314834665 652558536 398002653 500532182 516740545 82943683 605960417 694124526 334845103 663394902 903790229 966625417 801038014 156531673 910975657 608264627 405590265 36389877 364528759 191343625 32596282 754444127 347097894 27167536 758852370 386551433 173505201 813874440 637775105 432514767 753648353 218299533 652190433 702686888 851970826 193950061 863958673 36663759 807347139 302701157 473553997 396657409 213077945 577101457 944293379 343004817 126478788 972743515 238136501 941410821 443750959 778966597 319784036 973690556 653166417 171287233 557641809 58740871 365321861 481233169 631860675 763616131 74136135 621550369 833235551 330401687 266936829 654182076 551702289 87494353 800726113 209932802 798749867 558812929 819230763 849739847 69729080 239706764 575030333 864886356 239163174 480838209 124101018 93794988 383384617 189440009 372817993 338282998 283498052 529674425 684716433 639636336 94230889 573961049 834208201 625730681 861117962 156861173 364564225 573615201 441909285 562989838 422990557 442681448 140967835 68252748 767633971 439376277 418353338 977156221 785408222 32379468 365167964 722347585 992741557 304303991 859750606 462421617 747200276 532288589 598334205 607968627 560161301 594800583 658260353 265667029 238430080 274814761 415166728 943867505 455179568 794163858 427574553 977549441 458514085 703686820 364925790 326280042 38539773 450006379 533102287 887763137 903759973 793418293 122921977 718841819 861398433 756741970 200993516 422278292 572520637 360973669 373576729 907321937 423442196 850986580 469967889 663354003 360363255 558018366 498278673 534962200 973791069 803633317 434887825 974375371 850916619 887273911 213200497 522348243 270420325 419528152 72313441 405665205 717190940 546097029 125025284 152129455 523405089 291152925 722518748 196318061 713875444 894060993 521415861 142370493 698018995 42255673 307881141 379076622 223956554 293305617 90690189 292126927 319010521 707616933 534063341 189328257 309678425 26515417 664334603 526403435 841936931 157653025 284244978 566417027 785933309 306005867 655521993 370993913 277181585 82832174 980015854 280563472 354886361 539580733 502638987 959602576 288567750 698432447 233146976 640971528 90000318 960729033 537003928 465479481 359366481 134134436 231920822 750343831 648106721 976548321 997852509 117017347 4771659 62284978 731703129 751493547 32487413 281973699 809227835 686814632 753387873 340478105 1606427 501311031 593957127 620939546 318845331 778506818 851867369 326356761 350631327 539828081 997742689 568412753 125014313 717147106 353207191 395547900 876528560 1495009 371894246 319175676 760449241 388375059 28979553 994925127 957566025 895408712 689789994 978049406 287045977 250613819 795536025 185290781 523988620 840565121 366030449 559879269 253469937 523491375 610098616 509209974 667227043 961011584 399633677 153229968 484657369 25417877 68774009 993034572 46305009 383551081 284515876 454077414 61786080 503380876 304366171 169968627 364015903 8481953 142683481 592993116 432659957 131902584 345531165 774786341 956425971 159850946 380279333 90870965 649259713 622958449 897202297 966658585 966988420 64094475 200099769 388700393 705142247 889854303 638614073 454913238 471471460 878320368 767195578 191796421 937036365 597578420 30684181 673663293 358625809 954398913 106878721 596252223 311810071 681739621 797084337 575152633 372190747 509718273 724889017 420369940 331947787 247033871 885015681 973457793 193563233 341152011 560897509 964254248 911553647 530586225 375118977 920096280 81188107 92950561 354597985 832752005 316784321 765013275 279206459 271174702 709643911 143336129 777696301 304874049 8212571 30301043 330059961 664953969 812633769 90560220 275471314 739980073 856148829 366900361 466755210 489763401 453235729 88454571 107168145 803315935 791595873 605740915 82124512 762585039 925214119 595943149 953335172 192628049 954128804 491570634 28796749 153139637 660836673 753999866 378613129 934095743 787484958 101007037 766415993 685305545 486761403 316195407 609160662 284990585 322461309 853745537 134547977 160488165 287033189 708802033 729400151 533969225 502369196 213278547 36831261 518244598 617368727 459133066 681408939 224069777 348711592 540697922 452295209 878263041 524223987 995038517 114510777 609071739 505846781 379246017 402753450 419432391 232148069 994966636 662674202 490319401 520966439 514551393 621434697 180898605 288602487 959264886 498700774 929644649 630321291 805895466 195678034 27190971 996384897 198993476 563893934 489019139 661105035 786674097 745868791 510405142 431565681 5778323 809519943 97161415 171900833 226947913 592255687 583248275 843667631 559355897 615305121 567530183 620306753 522933281 380833141 684185859 864292690 41822001 132092990 966218501 433943497 391347383 394829188 323970527 541323747 167404045 319245409 842779505 602910913 379022645 226784428 528723348 614614274 819592613 809164951 715165825 501869662 7357969 163515945 201797569 13160125 926304441 886348877 527267521 680191806 534900889 888331617 770238441 281210568 372189072 475499597 900209394 868081047 987246278 595383885 735662132 978456756 970099401 930260374 824205186 187875191 521401748 190882017 981504838 81053057 630811550 440227967 801051473 711520681 163945453 115374456 519824113 389087643 979318457 70912385 397549665 537389149 89436161 991737771 456129011 359377048 709510637 527609385 59174063 81515577 848449748 276664401 465862334 78320479 715900675 797134558 876049825 554433001 407223717 680133232 380745129 879757360 613051880 930317887 44797119 12426405 324901541 222076339 515580489 673332995 576080941 762409817 975427681 758181377 707104195 82577031 961076781 685923041 248536525 424829235 678493895 882290332 648457537 186666102 559731586 555711909 107425387 895089362 43307273 250284347 41650097 414722285 427939086 442816713 269088837 644988801 199398507 782447424 55678923 851155679 928653569 730422857 640817817 134765665 81192829 270363628 616673171 137730905 764536059 340076749 473157973 777365949 392963644 196003923 233868249 293693997 770640201 689678309 372553942 409597937 69433811 283951111 523731640 967913176 625428480 566169112 396379809 593128801 115974477 947195233 721732489 494165045 496376077 697786287 598821693 292083933 171738345 366008089 