423 423 43
4673 1225 4529 8175 8465 4537 3107 7732 9481 6682 7959 9897 417 8544 9521 8987 8883 5182 7107 2373 1871 9350 8101 1137 5079 3897 6679 2890 4837 6861 9459 8827 9895 4929 6627 1613 5233 3092 5097 1137 7407 2678 3667 513 3292 9869 47 6777 6081 8615 7154 7613 2946 8015 4149 8264 4433 1412 3409 5377 7433 4273 2887 760 5732 2082 5305 2657 5969 3501 793 2729 6086 6945 6793 8283 8771 6086 9568 9921 9138 6565 1877 1365 8899 6521 8359 3012 9441 7297 9972 3307 8090 6209 6249 8148 3995 8835 7733 8577 3270 5531 2889 278 9305 8969 2033 3891 4274 7901 9584 7222 4209 6729 2472 1361 3211 615 5023 5889 9576 6917 7409 7365 3803 9797 4939 2757 9111 291 3069 7860 4131 5779 7188 2745 933 9229 8920 4825 6629 7411 705 7397 2399 8824 2143 4338 4830 3053 1281 3542 1923 5593 8855 7447 8767 2085 1889 5701 2775 2660 8108 9148 3332 6137 4694 9598 7033 3932 2429 3719 5111 9913 9287 5924 2941 9178 8241 6805 7865 4305 8282 4655 6857 4625 6417 8169 2831 3580 8625 7701 4467 9891 7873 5995 5489 4935 1507 9545 5573 629 6899 5185 3443 26 2552 6923 2497 1486 7512 4937 8776 359 9855 7566 8245 4139 61 6337 4017 6163 7827 9445 5672 4185 8976 6897 6305 2815 6713 8958 5767 1332 4545 7951 7350 9273 6588 6731 3281 8875 4106 1253 1283 1633 7210 9110 4063 7721 9059 2347 6112 4673 4449 4145 1937 4008 6205 4889 4811 7909 674 3466 6105 9005 9598 8480 5127 582 5253 2247 5123 3312 5336 2656 193 3686 6283 6081 7279 8480 9492 5157 6497 75 1459 2703 4359 8341 602 9641 2399 2115 4021 4801 885 6666 8109 682 3968 7031 6083 1473 4790 3247 6213 8385 8665 9124 5670 4304 5473 4229 71 7209 5886 221 9739 5969 1878 9437 5441 5338 2985 8193 3571 7394 9249 5971 7293 7745 6994 2920 4363 1950 9573 3665 4835 2515 4594 5365 9423 4205 2215 8866 3201 9432 1105 2353 3881 917 2289 3331 3485 8827 2937 493 6449 2597 5123 2541 257 3540 4289 9937 4537 6524 2009 9729 2554 8871 280 2909 71 9937 1769 7680 7881 3053 8975 1022 4397 6801 7283 8677 3505 5200 4730 3860 8725 2113 1507 5311 2389 8894 4463 6459 5793 6875 8993 6801 1049 8491 2619 4041 5941 2267 7472 5669 7613 2935 5395 7283 8269 5441 8746 5040 7841 9223 5559 4098 
349 920180523
76 552113117
106 158463611
418 409986809
152 905156451
86 276373137
330 95613339
417 84142514
286 589868386
277 728657375
180 619740844
231 221671901
103 723909126
222 5542617
102 948165291
366 578756801
351 928750230
347 501482220
227 574462670
224 785175384
264 5435821
55 720347882
212 57029598
218 577756302
112 647797392
50 964603868
346 806285553
161 795886461
33 433246138
159 916499121
169 439824369
353 858728935
3 331473754
307 683275969
43 370144655
129 415270211
314 414530568
30 711203994
150 300296807
347 162062865
251 73059156
362 52123951
132 555045828
23 278115954
356 30366090
264 550002145
269 167333664
37 792415065
413 34687952
129 191096958
423 419979719
214 656966218
28 871322452
77 671346909
63 927431111
65 877657837
231 303605471
233 642517787
422 922610727
418 490024488
317 667748831
19 736097208
96 33646889
394 651277986
124 752282723
30 714411236
140 555154549
336 760210652
277 985281022
308 743155691
401 42993316
42 656117749
15 200469783
44 569453378
14 250624476
359 692565829
313 935369312
388 359892447
365 840527019
174 596963425
71 764759573
374 423659719
256 358834647
332 18818434
340 61149547
410 161332238
169 869544543
135 271254184
118 747992189
76 74241527
379 137240471
209 568048614
350 226120603
102 320184404
249 252466638
303 987976768
200 873366907
406 709433475
341 350706810
67 799387892
323 196565588
167 459185823
51 105264645
416 405432793
133 746714445
199 243842472
258 186394695
366 560640289
164 445692596
85 926405477
63 998163301
81 538636524
247 281844284
138 965061094
287 53438165
209 27866949
307 526183149
80 989407980
81 25839478
294 272053855
69 598401791
240 699539590
176 993733817
324 717271423
286 58619009
174 592820474
47 530016483
246 422065818
241 873842782
329 830461977
83 658686707
253 303267321
205 276851156
87 468477289
299 997883699
169 875389753
20 9458013
142 561815291
357 267828806
219 438938855
233 97752695
75 964402945
419 203483267
41 323835067
56 175456423
133 475499110
379 815822811
389 648250275
184 958970808
263 40798664
99 770393322
403 578417969
25 728105163
57 844837809
418 402120428
400 611331253
195 995202754
249 579631892
49 345931612
315 910569778
70 645552497
165 554032
233 152585710
131 727740541
225 518182357
312 511403980
265 689221589
161 656447760
73 260776316
219 19954355
413 228949529
267 299975889
188 210715889
98 932347043
255 865906517
17 784589740
87 78209594
218 654888341
395 669191116
370 583422999
362 900822523
322 457547341
398 194166987
184 133812561
153 343095282
70 639947029
181 371472591
339 867774669
363 879465559
238 35273650
22 548875622
151 208145443
2 423815576
146 982098308
367 4168294
159 533696386
320 190430503
150 690497150
406 591388158
337 455690119
18 652260028
175 985468605
369 592292998
182 468243057
421 164447974
328 111109587
185 940200927
17 986126803
69 376409089
378 837473571
334 312187581
142 282036262
371 17259055
366 83029564
116 669005452
272 545246766
312 310769665
30 837915586
366 941319208
97 440427913
403 639640773
59 442173899
400 709766190
330 673960110
372 987562160
212 711284135
227 880066433
170 193334968
191 315068051
104 867313764
277 187288902
83 57459376
417 393441450
276 635742822
102 974700561
385 333892978
179 740146236
332 982366933
398 73147995
57 404185607
58 944797882
202 311582609
92 561908466
83 189719000
142 375180407
223 811185113
366 426035416
177 227479416
72 872815579
203 20481259
47 218137348
222 696348424
227 358140235
105 368123086
259 876744101
260 96703782
262 709112923
356 518658728
81 741413898
97 859829228
359 639860653
360 774731489
270 759332586
20 769713389
203 310899222
187 504951918
76 976357466
265 662326605
203 66440936
189 996705366
401 981954317
56 707994346
421 141674977
15 34466888
242 638563356
195 267855380
103 738223324
224 198984179
318 96373187
416 635691717
29 812840218
375 341187083
290 309322459
148 914044282
82 572992641
147 647990817
133 483062314
403 246376906
54 401766435
307 547305103
322 766359820
1 703753468
142 669605764
214 286107216
162 465076102
221 303685825
45 457831837
136 649649063
311 699250522
305 447406982
184 462985590
4 893326079
114 67559474
182 991516187
307 242556158
80 806205710
302 980972372
55 288652221
311 873429038
375 318529108
86 116172286
158 371010629
210 38434397
147 551252695
343 857441452
89 432985885
309 529700504
173 71904439
417 709701445
182 790257537
262 346636797
308 231348740
346 633696963
47 368579326
261 366502882
98 745539426
208 506260318
268 935198563
202 741421533
34 147474925
59 250407439
390 243017382
222 299496975
270 501950053
224 834710009
262 453927779
115 622715019
33 516691149
282 824922430
222 949778504
349 85415592
374 178068644
250 759416996
302 96534963
289 406348962
65 47310665
129 933410600
239 123565285
51 783851718
171 235611151
344 335208397
309 763477112
254 55062793
190 481830910
104 879330962
287 35984697
282 535892542
19 743622333
123 431780332
62 271985320
245 986030592
337 919446783
297 562779907
12 296920226
258 92799014
263 589165975
177 608845531
156 796028924
394 824132972
221 98865998
286 963855804
266 764040779
113 423748098
161 766489413
120 702733570
270 933915491
365 405028185
95 41666746
151 576762299
204 280539216
274 279562982
116 342412621
290 909801397
21 918511544
364 176047643
150 602685025
414 152072554
119 955470718
396 138185584
309 991248913
368 884014755
365 541515673
237 13031861
135 218232304
138 482455183
146 337350704
402 57004395
343 363024618
71 442294447
295 315009200
262 276008911
340 297163344
149 253267706
283 79615220
419 798285653
375 583465258
412 271433745
120 821043908
197 285242321
212 336263873
314 170358902
202 171228856
345 563596830
311 112948834
58 139973983
352 406449646
373 177858628
131 448927435
266 222811346
184 483698840
360 5325322
421 72995395
398 128533479
