912 821 857178
4739 661033 487274 824055 563743 120718 26475 705565 952545 529713 884603 304001 776139 400657 646897 394648 596193 274025 291036 20213 729977 643222 286086 625195 190308 412099 846284 692529 227492 682945 851758 37105 656123 371978 275574 631302 814496 453131 173989 630461 73095 669304 84745 52177 138763 229240 546573 687231 292225 888619 613178 234385 389494 876919 348027 152176 305377 384745 974945 79749 957492 843173 218657 133860 894137 778001 484257 531325 442753 131331 98807 200174 351369 287033 330419 598531 190081 963997 368078 524055 964691 820643 633170 481867 99065 987023 29759 578600 465761 676673 761617 203959 733278 366115 875005 541073 381329 798658 448381 891495 789718 42833 503263 210193 702987 516148 767453 852749 353008 398493 72929 544277 184833 578987 794717 290565 304046 327670 851385 198033 274149 593716 691885 105200 813093 925163 444821 873585 198630 437067 971227 327053 91303 36361 950193 442835 396955 432144 84981 113076 59633 43620 21760 145721 797061 74369 464460 689817 899867 882909 962453 520065 731436 138590 191761 126514 757679 130513 994529 191987 445055 625444 94171 307535 638776 695678 386637 995299 949154 338689 76216 935003 599195 796491 602927 949429 229114 825729 390849 290887 665183 439525 178769 515382 182817 739224 323089 745058 536239 312089 980471 498483 787812 99118 113599 491201 863275 263137 13149 505153 736342 440497 121164 324223 748725 192065 831633 685375 197459 221207 419309 390910 467719 753523 826017 899662 203641 236360 124859 318780 599291 158465 464871 554379 982985 202237 828757 307394 375073 650879 357485 350723 679649 437267 305118 40437 721625 669365 77855 826076 245245 505504 419255 738189 433409 488124 289404 382957 587353 886577 10178 534465 563471 889723 630595 439910 976321 542791 46970 161419 535157 390373 305271 754534 240429 329865 850241 619723 565921 405853 139381 205106 273572 162225 913749 70284 297597 233025 444945 112331 683313 620413 131413 271553 933423 478337 58244 239775 571303 35896 165075 425646 369231 467073 623740 343501 340065 548521 260897 116580 846837 429569 582289 357834 901873 950757 334328 482857 935969 235892 655127 149904 953963 90413 297391 49101 861880 470795 782039 840741 527073 385571 981825 271425 107215 154369 496017 587860 879777 696637 740905 161154 643726 793765 453087 65866 348288 421605 744285 461897 416159 538437 279151 793262 990609 97863 826391 439700 189929 629019 471131 105221 386868 53369 291497 699565 330584 145683 170577 997393 728561 522628 111447 571324 954095 509150 654529 427425 969346 114740 719273 326541 703161 677654 54797 808943 761333 67701 976792 788609 412225 357217 771969 482460 725697 509199 775544 342386 244181 664094 822917 117128 56761 971849 208047 714652 431794 807233 28648 486889 651051 559803 717705 432569 599112 252549 579675 830493 953193 315543 513640 490765 522941 569317 422614 25609 618113 204701 953921 16478 279920 58090 236321 847263 561517 561627 645095 327149 539641 790369 7035 291015 259017 640193 899103 288513 121903 848433 400050 686001 611140 225167 703615 311065 230080 601079 212233 587397 733832 562259 930700 584852 97353 657682 171365 828986 559329 738377 274461 506015 705843 582495 706879 211073 46096 918890 216457 328582 650233 410706 792068 618639 20875 450649 574038 6023 833138 588126 227805 359679 796209 126457 154276 433293 10305 660945 162181 93052 258543 286549 425089 153945 356416 69067 221785 46029 755690 736645 211891 318149 571383 442241 444741 808681 317441 664769 613953 925394 806187 915479 76227 105403 30087 850063 353261 569761 792673 316901 675639 400401 809887 422401 663125 909653 124069 709965 645441 365549 979653 924662 495078 677889 189473 465945 524628 106130 593779 488181 848011 879854 49689 593801 173814 830401 356901 143397 740095 552995 128914 42023 717074 513151 286463 490433 158230 662473 644935 83363 64447 723755 37529 152553 222481 791551 293526 212002 772859 159361 677350 174755 239165 670625 946673 853169 86737 443417 232341 36101 559036 110019 372271 209649 680785 382609 260601 430057 799863 498712 203599 718075 563452 578879 178824 752677 693433 364685 324345 552625 248193 211945 317313 838631 188629 170025 436739 913576 229399 624257 467948 629724 537013 454257 363490 654949 847913 861553 264604 511549 278749 921985 755393 430253 198929 116865 421617 96413 288230 951474 899889 514273 391151 828139 578135 20019 946851 457574 872692 5569 776753 46659 665565 929515 801997 534371 818425 722488 979172 9165 286351 87841 958281 814411 893987 527972 469399 357331 179177 55761 677989 188193 226394 553845 86861 179457 305443 363182 883353 600685 355780 913137 912387 956399 78767 633549 208965 887655 869693 407191 987997 441559 499930 15356 676802 451173 756017 405521 934901 39829 586544 433006 764236 524107 270853 143051 286161 787982 335977 213603 313893 589772 745009 398417 455009 989827 128326 315621 584729 198265 888113 847227 665683 703481 835502 491236 340594 280251 868523 608138 665577 416918 544905 140313 805626 329147 296777 562235 204473 678058 601203 290113 345939 972436 775573 160936 719243 196135 377837 54835 61547 414093 12513 183703 474400 641733 112597 276034 979233 765904 229123 425542 656129 46948 72457 473343 141770 534353 363197 243689 782941 798977 922077 297613 646209 615005 542775 142436 432842 848450 151725 196466 364909 346224 906501 533671 49874 432785 923444 299587 589368 563323 239169 103921 172679 789070 902335 355869 318289 302425 521345 113193 507865 178823 50534 663487 453553 588207 88937 496102 233298 269711 309777 28444 848417 809819 388489 195585 886482 754371 889999 124943 994041 982878 376071 707697 475223 399612 368345 502707 979652 967606 650859 208645 743110 8713 796762 44417 560293 264710 92777 266025 853185 505107 806111 61085 734243 739283 865851 562139 544851 620604 229263 965 190371 726199 386077 385462 171794 912518 476081 129681 383849 654508 289499 490349 521413 62289 468762 848083 631486 928245 525319 401857 385835 747358 871357 182059 339806 836919 943985 897801 336413 258180 891616 514092 919693 54012 157161 778565 546786 806441 836265 934979 845354 400203 753597 78055 488897 423334 131177 174984 989841 483703 995596 461121 307530 1473 98658 415288 262465 310769 469896 779805 610405 257169 977268 196797 623513 417803 840559 900192 350721 730629 
825 409 273 511 249 536 885 644 779 219 113 446 632 387 375 437 884 134 561 57 114 689 792 874 691 443 587 12 690 239 624 179 713 790 826 111 561 723 862 182 129 529 781 235 10 625 793 159 497 850 657 65 273 729 137 821 445 539 465 1 781 75 847 332 481 693 313 889 202 157 292 637 344 545 364 349 359 17 909 815 236 320 259 635 186 155 471 17 582 273 865 556 523 897 387 321 14 857 153 139 497 513 7 671 425 753 391 216 73 385 281 605 383 137 513 645 189 459 591 725 265 15 279 833 167 569 649 593 738 449 792 717 31 425 237 700 287 643 631 581 819 544 825 225 393 791 135 635 762 521 848 647 880 80 505 577 768 281 17 15 562 88 273 771 62 622 49 523 733 596 721 635 705 57 465 137 697 768 417 153 896 557 766 155 900 861 491 258 185 529 855 49 38 887 13 393 333 341 285 137 488 66 653 660 27 505 726 875 245 229 440 625 505 833 481 113 855 772 554 65 309 97 173 815 833 807 178 884 319 102 31 845 447 593 603 305 521 74 865 789 56 479 121 469 451 865 157 481 653 423 820 401 857 619 895 265 710 291 353 313 315 19 417 809 887 470 331 726 403 903 37 228 569 846 678 235 341 753 124 587 629 589 436 590 434 270 417 194 567 731 521 729 601 309 651 747 33 821 367 449 502 301 569 320 305 265 715 277 766 432 815 18 645 237 494 785 103 476 883 520 389 178 753 822 461 308 798 1 789 661 289 631 65 735 444 19 661 569 245 23 314 131 165 51 289 563 593 449 280 381 357 517 846 811 611 634 787 157 35 435 452 185 611 809 831 259 825 878 242 619 697 589 317 497 287 171 375 53 215 104 846 60 237 121 837 771 350 785 119 82 49 231 433 203 438 81 27 863 197 889 69 505 69 83 429 833 331 889 197 677 506 89 305 89 307 855 591 568 625 11 229 799 15 401 4 311 313 29 577 225 409 749 197 495 789 659 373 281 153 441 94 433 535 435 589 516 355 542 865 65 387 11 513 485 397 80 699 641 444 592 20 257 531 725 408 785 38 358 870 821 385 857 675 433 7 775 902 625 561 433 101 561 865 514 819 113 853 634 575 172 529 215 725 645 883 76 377 531 871 641 341 85 144 187 385 71 473 595 397 625 215 447 757 430 321 757 684 387 754 357 17 505 425 567 560 97 689 17 419 502 495 237 209 212 412 629 9 321 229 373 385 338 57 147 65 693 315 862 129 543 841 737 857 289 157 403 881 487 353 797 727 381 249 854 841 63 93 131 891 43 139 597 448 496 513 801 293 226 334 474 470 541 509 1 865 831 745 253 146 253 138 203 827 395 811 385 808 679 306 217 529 429 315 261 467 79 835 551 865 601 241 509 531 677 49 650 9 865 895 748 760 644 569 383 765 139 125 754 595 121 740 849 571 637 905 178 519 53 833 700 675 323 604 233 225 57 171 321 703 262 503 267 789 61 411 181 301 619 203 388 675 469 575 91 644 187 43 476 723 205 551 349 383 769 193 311 712 573 369 173 193 385 559 31 830 21 627 691 36 629 518 893 425 377 841 502 195 705 883 834 30 381 857 429 746 669 425 401 439 587 781 289 741 811 115 637 645 584 769 753 76 44 256 569 446 161 645 145 289 89 745 449 541 275 309 483 289 49 309 817 694 36 495 813 314 505 867 408 473 419 466 785 62 253 721 605 753 221 876 285 137 729 445 822 33 137 424 527 272 381 305 841 507 225 871 241 717 545 623 313 43 17 689 889 405 376 667 217 188 859 73 631 641 462 509 505 225 711 471 264 891 230 306 777 737 897 271 338 797 891 900 105 97 507 743 9 207 657 188 866 353 