577 79
35 88 57 41 85 17 67 33 42 99 21 54 33 44 83 42 100 61 29 36 79 79 69 37 73 31 81 5 41 33 35 79 82 88 85 12 59 64 4 35 85 57 5 51 89 27 44 13 55 92 20 13 98 89 45 84 43 84 61 65 23 21 9 37 33 98 57 43 49 100 2 45 41 78 59 11 1 91 93 12 89 29 18 5 73 58 77 9 17 97 82 29 65 7 99 97 54 83 37 73 20 58 35 65 73 24 51 65 37 5 44 61 63 91 45 27 93 43 13 61 10 62 18 81 45 45 19 81 97 33 73 33 36 9 5 53 95 39 69 7 31 49 11 36 33 85 49 13 45 69 86 54 46 37 75 13 16 33 7 98 93 89 57 79 26 49 1 39 73 57 93 65 41 17 97 19 79 87 73 89 45 23 37 85 91 71 1 68 97 94 65 95 41 61 77 47 30 84 53 25 73 97 63 72 37 1 67 21 13 39 21 57 69 26 89 42 67 5 77 95 53 21 43 29 5 62 92 42 9 48 67 81 93 96 41 73 13 58 81 91 79 95 56 93 25 25 92 22 65 99 50 18 63 12 47 21 5 90 77 61 84 29 86 100 95 43 13 81 77 77 77 33 25 5 79 51 16 48 44 21 74 82 35 17 97 33 11 91 85 10 78 51 97 73 70 69 72 77 87 23 17 1 49 81 39 99 57 17 88 43 72 94 57 7 49 53 65 40 29 77 49 65 85 82 13 49 48 85 20 41 3 40 89 32 18 56 81 18 92 97 65 52 31 61 49 69 69 65 69 65 42 40 3 60 33 41 1 73 13 93 19 89 13 49 27 30 69 21 28 91 7 33 76 1 89 75 85 97 79 61 23 21 29 9 85 62 89 45 47 10 19 21 92 1 81 67 75 83 9 44 13 59 1 65 85 74 75 29 72 21 56 89 67 11 85 72 10 28 41 79 48 55 85 62 5 75 23 85 32 26 46 20 56 88 65 3 37 81 97 55 58 89 77 34 97 43 5 61 73 85 83 89 37 55 29 21 41 42 13 73 31 56 31 65 32 21 93 92 8 62 55 85 9 55 83 33 53 21 45 55 26 56 56 77 83 21 29 77 57 81 52 57 62 28 51 9 16 64 78 29 22 86 45 43 77 93 97 3 95 72 23 25 33 11 29 42 22 99 36 6 46 97 17 73 64 21 59 9 57 86 7 7 13 59 60 97 35 74 11 69 22 29 93 15 69 47 46 46 9 65 85 31 93 93 3 57 52 93 81 21 93 2 45 51 58 36 98 1 67 33 97 29 16 82 17 36 22 
297
243 543
73 109
561 574
34 334
352 394
288 572
272 363
319 517
27 100
249 257
50 208
114 536
576 577
177 332
85 448
496 556
223 248
160 318
251 354
218 483
410 504
432 434
173 457
404 502
546 576
429 460
410 458
367 504
232 496
329 366
108 543
545 545
334 435
300 444
2 506
165 559
398 490
147 266
92 472
1 257
162 192
89 98
167 436
504 570
1 348
303 524
293 546
105 466
470 476
405 510
196 370
397 480
234 474
222 500
399 410
133 319
478 526
216 546
64 176
494 570
221 270
294 472
182 336
12 101
177 260
154 298
534 562
576 576
123 269
491 517
207 246
144 509
574 577
361 557
491 527
157 350
541 577
208 462
273 437
279 416
259 308
428 474
72 174
124 152
427 528
71 203
9 348
423 499
317 549
250 274
123 455
155 434
91 387
50 394
365 465
353 440
303 492
196 322
155 477
52 258
570 572
485 505
99 261
418 510
449 502
159 422
94 222
36 206
60 374
353 444
196 423
98 170
43 360
460 506
128 224
309 499
392 504
525 565
431 483
486 555
440 554
172 508
509 546
57 527
49 161
471 484
516 542
97 126
464 510
95 261
343 568
269 457
64 353
477 527
160 478
216 424
280 353
175 264
456 526
185 444
342 388
200 534
577 577
458 532
410 506
372 453
450 515
130 338
29 152
88 472
532 566
120 384
257 570
88 164
567 569
527 561
387 520
148 242
532 551
298 554
363 375
35 153
308 510
537 573
227 253
295 442
524 546
262 462
227 235
119 417
165 436
120 549
71 473
112 358
386 526
356 456
289 367
368 398
206 558
307 493
281 524
545 557
224 280
17 509
369 507
41 278
433 448
22 377
2 290
83 335
330 351
138 266
196 354
529 536
500 548
266 455
495 552
490 493
554 559
227 368
152 333
178 242
176 396
387 517
57 251
277 398
559 567
536 560
375 468
479 570
389 533
500 510
96 408
445 464
147 438
442 484
461 539
496 533
485 493
146 498
366 460
521 535
567 570
455 520
292 303
110 410
527 548
447 477
255 299
457 567
238 485
215 447
313 560
234 239
129 313
467 562
527 535
331 555
458 515
334 442
334 514
420 486
9 312
498 498
512 512
11 36
410 458
568 573
399 575
520 558
374 522
274 354
447 496
143 196
521 536
262 447
39 154
506 524
286 366
233 491
455 554
522 550
419 479
433 557
17 440
497 497
350 398
356 416
351 494
310 410
239 301
197 197
161 300
341 484
263 328
511 526
387 451
317 475
453 547
354 456
450 458
239 518
550 552
416 553
417 575
520 550
13 335
554 566
204 484
511 576
189 407
390 488
292 434
117 243
72 245
347 361
240 339
